[TITLE]


[JUNCTIONS]
;ID              	Elev        	Demand      	Pattern         
 I-AV-1          	892.4       	0           	                	;
 O-AV-2          	875         	0           	                	;
 J-1             	902.2       	0           	                	;
 J-10            	884         	7.13194     	2               	;
 J-100           	813.2       	0.4213      	11              	;
 J-101           	806.2       	0.18056     	11              	;
 J-102           	870.7       	2.06481     	2               	;
 J-103           	863.1       	0           	                	;
 J-104           	854.9       	0           	                	;
 J-105           	857.2       	0.06019     	11              	;
 J-106           	825.9       	0.15509     	2               	;
 J-107           	873.4       	0           	                	;
 J-108           	843.5       	0.22917     	11              	;
 J-109           	854.2       	0.90509     	11              	;
 J-11            	783.8       	0           	                	;
 J-110           	909.9       	1.52083     	11              	;
 J-111           	916.9       	0           	                	;
 J-112           	922.6       	2.41898     	2               	;
 J-113           	896         	0           	                	;
 J-114           	897         	0.32639     	11              	;
 J-115           	892.8       	0.26852     	11              	;
 J-116           	841         	1.75231     	11              	;
 J-117           	907         	0           	                	;
 J-118           	835.5       	1.52083     	11              	;
 J-119           	862.2       	0           	                	;
 J-12            	797.2       	2.22454     	1               	;
 J-120           	832.7       	0.86111     	11              	;
 J-121           	835.6       	0           	                	;
 J-122           	903.6       	0           	                	;
 J-123           	848.2       	0           	                	;
 J-124           	853.4       	0           	                	;
 J-125           	869.5       	1.96296     	11              	;
 J-126           	902.6       	2.74537     	11              	;
 J-127           	805.1       	0.01852     	11              	;
 J-128           	804.2       	0           	                	;
 J-129           	835.2       	0.19907     	11              	;
 J-13            	872.7       	0           	                	;
 J-130           	837.6       	0           	                	;
 J-131           	837.6       	0.15046     	1               	;
 J-132           	842.7       	0.53704     	11              	;
 J-133           	877.1       	1.74306     	11              	;
 J-134           	896.3       	0.60417     	11              	;
 J-135           	832         	0.75        	11              	;
 J-136           	843         	0.78935     	11              	;
 J-137           	884.2       	0           	                	;
 J-138           	897.6       	0.92824     	11              	;
 J-139           	860         	0           	                	;
 J-14            	875.9       	1.25231     	1               	;
 J-140           	863.6       	0           	                	;
 J-141           	844         	0           	                	;
 J-142           	829.3       	0           	                	;
 J-143           	888.4       	0.01852     	1               	;
 J-144           	942.2       	0           	                	;
 J-145           	941         	0           	                	;
 J-146           	862.4       	0.53472     	11              	;
 J-147           	836.2       	0           	                	;
 J-148           	836.2       	1.14815     	11              	;
 J-149           	842.4       	0.56481     	11              	;
 J-15            	912.2       	0.375       	11              	;
 J-150           	845.2       	0.57639     	11              	;
 J-151           	835.5       	0           	                	;
 J-152           	790.9       	0.8125      	11              	;
 J-153           	872         	2.11574     	11              	;
 J-154           	854.8       	0.5625      	11              	;
 J-155           	858.4       	0.1713      	11              	;
 J-156           	851.7       	0.53935     	11              	;
 J-157           	849.5       	1.125       	11              	;
 J-158           	803.7       	0           	                	;
 J-159           	869.5       	0           	                	;
 J-16            	914.3       	0.64583     	11              	;
 J-160           	834.8       	0           	                	;
 J-161           	834.8       	0           	                	;
 J-162           	841.4       	0.03241     	11              	;
 J-163           	809.1       	0           	                	;
 J-164           	850.4       	0.28472     	2               	;
 J-165           	844.9       	0           	                	;
 J-166           	824         	0.39352     	11              	;
 J-167           	821.1       	0           	                	;
 J-168           	790         	0.04398     	2               	;
 J-169           	797.8       	0           	                	;
 J-17            	887         	2.53704     	2               	;
 J-170           	829.9       	0.33565     	11              	;
 J-171           	830.9       	0.30093     	2               	;
 J-172           	863.2       	0           	                	;
 J-173           	860.6       	0.75231     	11              	;
 J-174           	808.2       	0.28241     	11              	;
 J-175           	806.1       	0.96528     	11              	;
 J-176           	829.9       	0.21296     	11              	;
 J-177           	828.2       	1.1875      	11              	;
 J-178           	878.1       	0           	                	;
 J-179           	905.6       	2.38889     	11              	;
 J-18            	888.3       	1.45139     	2               	;
 J-180           	835.7       	0           	                	;
 J-181           	855.1       	0.58796     	11              	;
 J-182           	851.7       	0           	                	;
 J-183           	812.3       	0.1875      	11              	;
 J-184           	816.2       	0.2338      	11              	;
 J-185           	848.5       	2.42361     	11              	;
 J-186           	805.8       	0           	                	;
 J-187           	795.9       	0           	                	;
 J-188           	840         	0           	                	;
 J-189           	838.9       	0           	                	;
 J-19            	860.3       	0.34491     	1               	;
 J-190           	886.7       	0.32407     	11              	;
 J-191           	879.5       	1.38426     	11              	;
 J-192           	902.6       	1.22685     	1               	;
 J-193           	898.1       	0           	                	;
 J-194           	887.5       	1.46759     	11              	;
 J-195           	809.9       	2.08333     	2               	;
 J-196           	855.6       	1.0625      	11              	;
 J-197           	855.6       	3.16204     	11              	;
 J-198           	824.6       	2.14352     	11              	;
 J-199           	891.8       	1.46296     	11              	;
 J-2             	889.8       	9.7963      	2               	;
 J-20            	853.1       	0.39583     	11              	;
 J-200           	834.5       	0           	                	;
 J-201           	845.2       	0           	                	;
 J-202           	809         	0           	                	;
 J-203           	800         	0.59491     	11              	;
 J-204           	791.3       	0           	                	;
 J-205           	891.4       	0.29398     	11              	;
 J-206           	894.9       	0.22222     	11              	;
 J-207           	850.1       	0.37732     	1               	;
 J-208           	844.7       	1.20602     	11              	;
 J-209           	889.4       	0.94213     	11              	;
 J-21            	838         	0           	                	;
 J-210           	867.6       	1.75        	11              	;
 J-211           	819.8       	0.7338      	11              	;
 J-212           	812.1       	1.36111     	11              	;
 J-213           	817.7       	5.75463     	2               	;
 J-214           	812.1       	0           	                	;
 J-215           	855.2       	0.0625      	11              	;
 J-216           	803.6       	0.22917     	11              	;
 J-217           	849.7       	0.86574     	11              	;
 J-218           	858.5       	0           	                	;
 J-219           	833.1       	0.76852     	11              	;
 J-22            	864.8       	1.20602     	11              	;
 J-220           	864.4       	2.01852     	11              	;
 J-221           	891.5       	0           	                	;
 J-222           	887.1       	0.2         	11              	;
 J-223           	854.2       	0.54167     	11              	;
 J-224           	815.5       	0.51157     	11              	;
 J-225           	816.9       	0.10417     	11              	;
 J-226           	833.2       	0           	                	;
 J-227           	832         	0           	                	;
 J-228           	851.5       	0           	                	;
 J-229           	856.7       	0.58333     	11              	;
 J-23            	822.7       	1.50231     	11              	;
 J-230           	859.3       	0           	                	;
 J-231           	812.3       	0.45833     	11              	;
 J-232           	896.7       	2.22454     	11              	;
 J-233           	834.7       	0           	                	;
 J-234           	852.5       	1.62269     	11              	;
 J-235           	862         	0.3125      	11              	;
 J-236           	825.2       	0           	                	;
 J-237           	891         	0.17361     	11              	;
 J-238           	892.3       	0.19213     	11              	;
 J-239           	788.1       	0.91667     	11              	;
 J-24            	815.4       	0.35185     	2               	;
 J-240           	790         	1.2963      	11              	;
 J-241           	899.9       	0.80324     	11              	;
 J-242           	887         	0           	                	;
 J-243           	808.3       	0.17593     	11              	;
 J-244           	791         	0.28935     	11              	;
 J-245           	912.7       	0           	                	;
 J-246           	875.6       	0.80093     	11              	;
 J-247           	808.3       	0           	                	;
 J-248           	869.8       	0.90972     	11              	;
 J-249           	860.6       	2.00926     	11              	;
 J-25            	871.3       	2.41667     	11              	;
 J-250           	798.6       	0           	                	;
 J-251           	862.1       	0           	                	;
 J-252           	851.5       	5.3         	1               	;
 J-253           	859.4       	2.16898     	11              	;
 J-254           	915         	0.30093     	2               	;
 J-255           	858.2       	0.125       	11              	;
 J-256           	856.3       	0           	                	;
 J-257           	845.2       	1.81713     	1               	;
 J-258           	831.3       	0.78935     	1               	;
 J-259           	817         	10.8356     	1               	;
 J-26            	857.4       	1.71759     	11              	;
 J-260           	849.2       	0           	                	;
 J-261           	841.7       	0           	                	;
 J-262           	834.8       	1.18981     	11              	;
 J-263           	840.7       	0.20139     	11              	;
 J-264           	836.7       	0           	                	;
 J-265           	821.2       	0.46296     	11              	;
 J-266           	813.4       	0           	                	;
 J-267           	803.7       	1.2037      	11              	;
 J-268           	881.2       	0.50694     	11              	;
 J-269           	777.2       	0           	                	;
 J-27            	847.8       	0.70139     	1               	;
 J-270           	915         	1.41435     	11              	;
 J-271           	913.8       	1.72454     	11              	;
 J-272           	878.6       	0           	                	;
 J-273           	865.8       	0.37963     	11              	;
 J-274           	843         	2.22917     	1               	;
 J-275           	850         	0.75        	11              	;
 J-276           	845.7       	0           	                	;
 J-277           	824.4       	0.41667     	11              	;
 J-278           	819.9       	0           	                	;
 J-279           	846.2       	0.60417     	11              	;
 J-28            	838.4       	1.20602     	11              	;
 J-280           	813.6       	0.93056     	11              	;
 J-281           	837.6       	1.15278     	1               	;
 J-282           	805.8       	0.25694     	2               	;
 J-283           	842.3       	2.31944     	2               	;
 J-284           	838.9       	3.41204     	1               	;
 J-285           	842         	0.22917     	11              	;
 J-286           	857.9       	2.17593     	11              	;
 J-287           	870.6       	0.85417     	11              	;
 J-288           	813.4       	0           	                	;
 J-289           	849.6       	1.84722     	11              	;
 J-29            	872.4       	0           	                	;
 J-290           	859.7       	0           	                	;
 J-291           	852.4       	0           	                	;
 J-292           	841.7       	0.05556     	11              	;
 J-293           	848.4       	0.4375      	11              	;
 J-294           	860.7       	1.91667     	11              	;
 J-295           	869.4       	0           	                	;
 J-296           	909.8       	0.2662      	11              	;
 J-297           	838.2       	0.34259     	1               	;
 J-298           	839.5       	0.12963     	11              	;
 J-299           	834         	0.44907     	11              	;
 J-3             	867         	1.31481     	11              	;
 J-30            	880.7       	0           	                	;
 J-300           	858.7       	1.28472     	11              	;
 J-301           	856         	2.20139     	11              	;
 J-302           	853.8       	0.21991     	2               	;
 J-303           	877         	0.18287     	11              	;
 J-304           	886.5       	1.74537     	11              	;
 J-305           	863.7       	0           	                	;
 J-306           	792.6       	0.7037      	11              	;
 J-307           	908.8       	0.7037      	11              	;
 J-308           	892.6       	0.26852     	11              	;
 J-309           	818         	1.86574     	11              	;
 J-31            	793.2       	1           	11              	;
 J-310           	853.1       	0.34954     	1               	;
 J-311           	860.1       	0.48843     	11              	;
 J-312           	840         	1.9838      	11              	;
 J-313           	836.9       	0.05787     	11              	;
 J-314           	830.9       	0.34259     	1               	;
 J-315           	830         	0           	                	;
 J-316           	840.2       	0           	                	;
 J-317           	869.8       	1.90046     	1               	;
 J-318           	820.4       	0           	                	;
 J-319           	820.3       	0           	                	;
 J-32            	799.5       	0.25926     	11              	;
 J-320           	892.8       	0           	                	;
 J-321           	854.1       	0.19213     	2               	;
 J-322           	891.3       	0           	                	;
 J-323           	889.8       	0.19676     	1               	;
 J-324           	844.5       	1.17824     	11              	;
 J-325           	868.2       	0.96991     	11              	;
 J-326           	892         	0           	                	;
 J-327           	828         	1.03935     	11              	;
 J-328           	819.6       	0.12269     	2               	;
 J-329           	803.9       	0           	                	;
 J-33            	878.7       	0.01852     	11              	;
 J-330           	877.6       	3.47685     	11              	;
 J-331           	856         	0           	                	;
 J-332           	834.7       	23.9282     	2               	;
 J-333           	853.9       	5.20139     	2               	;
 J-334           	894.2       	0.56944     	11              	;
 J-335           	815.8       	0.84028     	11              	;
 J-336           	818.1       	1.22222     	11              	;
 J-337           	886.7       	3.76852     	11              	;
 J-338           	917.5       	0           	                	;
 J-339           	876.7       	0.52083     	11              	;
 J-34            	892.4       	0           	                	;
 J-340           	859.5       	2.3125      	11              	;
 J-341           	878.3       	0.74537     	11              	;
 J-342           	899.3       	0.94907     	2               	;
 J-343           	827.5       	0.8287      	11              	;
 J-344           	842.8       	0.84722     	11              	;
 J-345           	846.7       	0.37037     	11              	;
 J-346           	848.1       	0.70833     	11              	;
 J-347           	834.8       	0.55556     	11              	;
 J-348           	836.1       	0           	                	;
 J-349           	854.5       	0           	                	;
 J-35            	900.2       	1.32407     	2               	;
 J-350           	853.3       	0           	                	;
 J-351           	879.9       	0           	                	;
 J-352           	854.5       	0.23843     	11              	;
 J-353           	862.4       	3.26852     	1               	;
 J-354           	839.5       	0           	                	;
 J-355           	831.3       	2.39352     	11              	;
 J-356           	838.7       	1.06944     	11              	;
 J-357           	845.1       	2.75926     	11              	;
 J-358           	797.9       	0           	                	;
 J-359           	849.6       	0           	                	;
 J-36            	940.3       	0.0463      	2               	;
 J-360           	843.8       	0.46296     	11              	;
 J-361           	838.5       	1.40278     	1               	;
 J-362           	838.9       	0.57176     	11              	;
 J-363           	861.1       	0           	                	;
 J-364           	872         	0           	                	;
 J-365           	865.9       	0           	                	;
 J-366           	868.6       	1.47454     	2               	;
 J-367           	868         	1.51852     	11              	;
 J-368           	847.5       	2.67361     	11              	;
 J-369           	902.4       	0           	                	;
 J-37            	872.7       	0.16667     	1               	;
 J-370           	872.5       	0.11806     	11              	;
 J-371           	886.7       	0.12269     	11              	;
 J-372           	894.3       	0           	                	;
 J-373           	884         	0           	                	;
 J-374           	862         	3.43519     	11              	;
 J-375           	848.7       	0           	                	;
 J-376           	828.2       	0.60648     	11              	;
 J-377           	869.5       	0           	                	;
 J-378           	881.6       	1.125       	2               	;
 J-379           	880.2       	1.12731     	2               	;
 J-38            	870.5       	0           	                	;
 J-380           	903.3       	7.09491     	1               	;
 J-381           	902.6       	0           	                	;
 J-382           	827.1       	0.56713     	11              	;
 J-383           	886.2       	0.20602     	11              	;
 J-384           	899.9       	1.12963     	11              	;
 J-385           	846.6       	0.90972     	11              	;
 J-386           	795.6       	1.7963      	11              	;
 J-387           	863.6       	0.82639     	11              	;
 J-388           	859.1       	0.37963     	11              	;
 J-389           	863.7       	0           	                	;
 J-39            	894.9       	2.41204     	11              	;
 J-390           	869.9       	1.40509     	2               	;
 J-391           	865.9       	3.53473     	11              	;
 J-392           	880.7       	2           	11              	;
 J-393           	817         	1.60185     	1               	;
 J-394           	807         	1.05324     	11              	;
 J-395           	803.4       	1.14352     	11              	;
 J-396           	853         	0           	                	;
 J-397           	804.8       	0           	                	;
 J-398           	837.7       	1.15509     	2               	;
 J-399           	941.7       	0           	                	;
 J-4             	846.5       	0           	                	;
 J-40            	896.8       	0           	                	;
 J-400           	862.1       	1.57639     	11              	;
 J-401           	872         	0.58796     	11              	;
 J-402           	887.4       	0           	                	;
 J-403           	859.9       	0.13889     	11              	;
 J-404           	871.2       	0           	                	;
 J-405           	902.6       	0.36574     	1               	;
 J-406           	834.4       	1.40741     	11              	;
 J-407           	836.1       	0.35417     	11              	;
 J-408           	886.7       	2           	11              	;
 J-409           	868.3       	0.31713     	11              	;
 J-41            	872         	4.56713     	11              	;
 J-410           	864.3       	0.28009     	11              	;
 J-411           	873.6       	1.5         	11              	;
 J-412           	868.1       	0.28935     	11              	;
 J-413           	858.6       	0           	                	;
 J-414           	834.4       	2.57639     	1               	;
 J-415           	840.4       	0.56019     	11              	;
 J-416           	852.2       	0.6713      	11              	;
 J-417           	852.9       	0           	                	;
 J-418           	864.7       	0           	                	;
 J-419           	859.9       	3.20833     	1               	;
 J-42            	879.0002    	1.59954     	11              	;
 J-420           	880         	0           	                	;
 J-421           	862.4       	1.31019     	1               	;
 J-422           	926.2       	0           	                	;
 J-423           	869.6       	0.61343     	11              	;
 J-424           	898         	3.09954     	1               	;
 J-425           	876.2       	0.57176     	11              	;
 J-426           	923.3       	0           	                	;
 J-427           	940.8       	0.08565     	2               	;
 J-428           	808.8       	0           	                	;
 J-429           	871.2       	0.37037     	11              	;
 J-43            	902.3       	0.46296     	11              	;
 J-430           	844.5       	1.0463      	1               	;
 J-431           	866.1       	0.14352     	11              	;
 J-432           	872.6       	0.56944     	11              	;
 J-433           	816.2       	0.06019     	11              	;
 J-434           	836.8       	0.65972     	11              	;
 J-435           	864.7       	0.9375      	11              	;
 J-436           	860.7       	0           	                	;
 J-437           	844.5       	0.02083     	11              	;
 J-438           	855.7       	0           	                	;
 J-439           	826.1       	0.51389     	1               	;
 J-44            	828.7       	1.4838      	1               	;
 J-440           	822.2       	0           	                	;
 J-441           	789.8       	2.19213     	2               	;
 J-442           	785.4       	0.29861     	11              	;
 J-443           	936.1       	0.82639     	11              	;
 J-444           	910.7       	2.4537      	2               	;
 J-445           	809.5       	0.57407     	11              	;
 J-446           	834.9       	0.46991     	11              	;
 J-447           	818.7       	0.15972     	11              	;
 J-448           	834         	0           	                	;
 J-449           	838.7       	1.54861     	11              	;
 J-45            	805.3       	0.66898     	11              	;
 J-450           	790.7       	0           	                	;
 J-451           	806.8       	0           	                	;
 J-452           	811.3       	0           	                	;
 J-453           	869.5       	12.2616     	11              	;
 J-454           	799.3       	0.29167     	2               	;
 J-455           	859.6       	0           	                	;
 J-456           	894.2       	2.2662      	1               	;
 J-457           	891.5       	0           	                	;
 J-458           	911.4       	0           	                	;
 J-459           	920.6       	0.75231     	11              	;
 J-46            	814.1       	1.53241     	2               	;
 J-460           	877.3       	0           	                	;
 J-461           	927.4       	0.03241     	2               	;
 J-462           	875.5       	0           	                	;
 J-463           	860.8       	0           	                	;
 J-464           	879         	1.72222     	11              	;
 J-465           	861.5       	22.9        	1               	;
 J-466           	857.9       	0.19907     	11              	;
 J-467           	849.7       	0.56944     	11              	;
 J-468           	836.8       	0           	                	;
 J-469           	852.1       	1.77546     	11              	;
 J-47            	810.3       	3.17824     	11              	;
 J-470           	843.4       	0.26157     	11              	;
 J-471           	847.5       	0.57407     	11              	;
 J-472           	921         	6.42824     	11              	;
 J-473           	872.5       	0           	                	;
 J-474           	851.4       	2.99074     	1               	;
 J-475           	889.7       	0.65046     	11              	;
 J-476           	879.5       	0.4213      	1               	;
 J-477           	935.9       	0.30093     	11              	;
 J-478           	916.5       	1.11806     	11              	;
 J-479           	848         	0           	                	;
 J-48            	872.1       	0           	                	;
 J-480           	834.1       	0.35185     	11              	;
 J-481           	834.5       	0.71065     	11              	;
 J-482           	794         	0.58796     	1               	;
 J-483           	861.3       	200         	3               	;
 J-484           	863.3       	0           	                	;
 J-485           	936.2       	0           	                	;
 J-486           	791.3       	0           	                	;
 J-487           	834.6       	1.09491     	11              	;
 J-488           	831.7       	4.68982     	11              	;
 J-489           	808.6       	0           	                	;
 J-49            	886.9       	0.27778     	1               	;
 J-490           	951.9       	0.05324     	2               	;
 J-491           	893         	0.46065     	2               	;
 J-492           	811.3       	0           	                	;
 J-493           	837.3       	1.38426     	1               	;
 J-494           	868.7       	0           	                	;
 J-495           	852.8       	0.15509     	1               	;
 J-496           	860.4       	0           	                	;
 J-497           	860.3       	4.8         	1               	;
 J-498           	871.3       	3.35648     	11              	;
 J-499           	868.3       	0.34722     	11              	;
 J-5             	849         	0           	                	;
 J-50            	864.3       	0.11343     	11              	;
 J-500           	816.5       	1.94444     	11              	;
 J-501           	838.8       	0           	                	;
 J-502           	881.4       	1.03241     	1               	;
 J-503           	855.4       	2.80093     	1               	;
 J-504           	878.1       	0           	                	;
 J-505           	869.6       	0           	                	;
 J-506           	863.8       	22.1        	2               	;
 J-507           	877.6       	0.32176     	11              	;
 J-508           	873.3       	0.0463      	11              	;
 J-509           	855.5       	1.4375      	11              	;
 J-51            	883.7       	0.15972     	2               	;
 J-510           	876.4       	0           	                	;
 J-511           	834         	0           	                	;
 J-512           	850.2       	0.62963     	11              	;
 J-513           	854.8       	0           	                	;
 J-514           	856.5       	0           	                	;
 J-515           	841         	0           	                	;
 J-516           	888.7       	0           	                	;
 J-517           	856         	0           	                	;
 J-518           	870.5       	0.82639     	1               	;
 J-519           	852.8       	0           	                	;
 J-52            	842         	0.05787     	1               	;
 J-520           	822.6       	0.74769     	11              	;
 J-521           	865.7       	0           	                	;
 J-522           	868.7       	0           	                	;
 J-523           	850.4       	1.02315     	2               	;
 J-524           	876.5       	1.64815     	1               	;
 J-525           	875.9       	0.62963     	1               	;
 J-526           	830.4       	1.75463     	1               	;
 J-527           	842.4       	2.28935     	1               	;
 J-528           	842.6       	0.91898     	2               	;
 J-529           	832.5       	0.88889     	2               	;
 J-53            	843.4       	0           	                	;
 J-530           	883.3       	1.21065     	11              	;
 J-531           	843.1       	0.84954     	11              	;
 J-532           	814.9       	0.41667     	11              	;
 J-533           	813.8       	8.86806     	11              	;
 J-534           	868         	1.88657     	11              	;
 J-535           	849.7       	0.45139     	2               	;
 J-536           	843.4       	0.45833     	11              	;
 J-537           	868.2       	1.82407     	11              	;
 J-538           	899.7       	2.7037      	11              	;
 J-539           	902.2       	0           	                	;
 J-54            	845.5       	3           	1               	;
 J-540           	876.9       	0           	                	;
 J-541           	880.5       	0.49768     	2               	;
 J-542           	871.3       	0           	                	;
 J-543           	878.4       	0.73148     	2               	;
 J-544           	867.8       	0.54167     	2               	;
 J-545           	795.7       	0           	                	;
 J-546           	870.6       	0           	                	;
 J-547           	867.3       	1.68287     	1               	;
 J-548           	832.9       	0.28704     	11              	;
 J-549           	825         	0           	                	;
 J-55            	861.7       	0           	                	;
 J-550           	832.3       	0.67361     	11              	;
 J-551           	860.5       	0.39815     	11              	;
 J-552           	875.9       	0.29398     	1               	;
 J-553           	907.5       	0           	                	;
 J-554           	894.7       	0.77546     	1               	;
 J-555           	878.7       	0.96        	11              	;
 J-556           	882.7       	1.25231     	11              	;
 J-557           	848.2       	3.57639     	11              	;
 J-558           	830         	3.30787     	1               	;
 J-559           	853.4       	9.80787     	11              	;
 J-56            	847.5       	0.41667     	11              	;
 J-560           	877.9       	0           	                	;
 J-561           	794.3       	0.16667     	11              	;
 J-562           	789.1       	0.41435     	11              	;
 J-563           	857.7       	0.33333     	11              	;
 J-564           	826.3       	2.19907     	11              	;
 J-565           	891.5       	1.22454     	11              	;
 J-566           	862.5       	1.11806     	11              	;
 J-567           	876.3       	1.24306     	11              	;
 J-568           	913.6       	0.16435     	11              	;
 J-569           	938.2       	0           	                	;
 J-57            	841.5       	2.09491     	11              	;
 J-570           	856.6       	1.07639     	11              	;
 J-571           	869         	0.06019     	11              	;
 J-572           	889.6       	0           	                	;
 J-573           	809         	0.43518     	11              	;
 J-574           	829.1       	0.80556     	11              	;
 J-575           	846.2       	0.1713      	11              	;
 J-576           	908.8       	1.76389     	2               	;
 J-577           	843.1       	3.96528     	11              	;
 J-578           	880.7       	1.44444     	11              	;
 J-579           	853.8       	0.84028     	11              	;
 J-58            	808.2       	1.56713     	11              	;
 J-580           	810.4       	0.10185     	11              	;
 J-581           	872.8       	0.51        	1               	;
 J-582           	876.1       	0.40972     	11              	;
 J-583           	920.6       	0           	                	;
 J-584           	921.5       	0.59028     	2               	;
 J-585           	896.8       	0           	                	;
 J-586           	814.6       	0           	                	;
 J-587           	823.4       	0           	                	;
 J-588           	827.9       	0           	                	;
 J-589           	856.6       	0           	                	;
 J-59            	849.1       	1           	11              	;
 J-590           	807.6       	0           	                	;
 J-591           	886.4       	1.31481     	11              	;
 J-592           	845.6       	1.94444     	11              	;
 J-593           	820.5       	0           	                	;
 J-594           	862.2       	0           	                	;
 J-595           	858.9       	1.36343     	11              	;
 J-596           	844.8       	0.23843     	2               	;
 J-597           	893.6       	0.69907     	11              	;
 J-598           	896.9       	0.30093     	2               	;
 J-599           	858         	0.26157     	11              	;
 J-6             	912.1       	1.68981     	2               	;
 J-60            	861.5       	0           	                	;
 J-600           	836.1       	1.4375      	2               	;
 J-601           	859.5       	1.09954     	11              	;
 J-602           	811.7       	2.86343     	11              	;
 J-603           	899.9       	2.66667     	11              	;
 J-604           	913.5       	1.23843     	11              	;
 J-605           	850.8       	3           	11              	;
 J-606           	856.6       	0           	                	;
 J-607           	850         	0.88194     	11              	;
 J-608           	916.5       	0           	                	;
 J-609           	871.1       	0           	                	;
 J-61            	868.1       	0.37963     	11              	;
 J-610           	890.4       	0           	                	;
 J-611           	864.2       	1.04167     	11              	;
 J-612           	813.4       	0.96991     	11              	;
 J-613           	924.6       	1.55093     	2               	;
 J-614           	904.2       	0           	                	;
 J-615           	892.4       	1.28472     	11              	;
 J-616           	836.1       	0.2338      	11              	;
 J-617           	808.3       	0           	                	;
 J-618           	835.5       	0.63657     	1               	;
 J-619           	871.4       	0           	                	;
 J-619a          	875         	0           	                	;
 J-62            	869         	0           	                	;
 J-620           	850.4       	0.58565     	11              	;
 J-621           	896.9       	0           	                	;
 J-622           	814.8       	0           	                	;
 J-623           	870         	3.23843     	2               	;
 J-624           	903.6       	0           	                	;
 J-625           	834.9       	0.22685     	1               	;
 J-626           	871.5       	0.71528     	2               	;
 J-627           	882.7       	1           	11              	;
 J-628           	884         	0           	                	;
 J-629           	811.4       	0.3588      	11              	;
 J-63            	861.2       	0.78935     	11              	;
 J-630           	809.4       	1.2338      	11              	;
 J-631           	867.2       	0.25694     	11              	;
 J-632           	878.4       	2.72917     	11              	;
 J-633           	813.2       	2.13657     	11              	;
 J-634           	865.2       	0.14352     	2               	;
 J-635           	846.4       	4           	1               	;
 J-636           	873.4       	0           	                	;
 J-637           	872.2       	0           	                	;
 J-638           	818.3       	0           	                	;
 J-639           	803.6       	0.94676     	11              	;
 J-64            	870.4       	3.65509     	11              	;
 J-640           	875.1       	0.39352     	11              	;
 J-641           	923.3       	0           	                	;
 J-642           	836.1       	0           	                	;
 J-643           	921.4       	0           	                	;
 J-644           	911.5       	0.38426     	11              	;
 J-645           	911.5       	3.80324     	11              	;
 J-646           	913         	2.4838      	11              	;
 J-647           	872.3       	4.30324     	11              	;
 J-648           	888.3       	0.54398     	11              	;
 J-649           	885.8       	0           	                	;
 J-65            	833.7       	0.63657     	11              	;
 J-650           	888.6       	0.7037      	11              	;
 J-651           	838.6       	0           	                	;
 J-652           	874.5       	4.22917     	2               	;
 J-653           	841         	0.07176     	1               	;
 J-654           	840.3       	0.17361     	1               	;
 J-655           	854.4       	0           	                	;
 J-656           	830.6       	1.19907     	11              	;
 J-657           	830.1       	0.92593     	11              	;
 J-658           	878.1       	0           	                	;
 J-659           	853.7       	3.15741     	2               	;
 J-66            	834.5       	0           	                	;
 J-660           	875.4       	0.15972     	11              	;
 J-661           	870.8       	1.08333     	11              	;
 J-662           	827.2       	0.51389     	11              	;
 J-663           	883.8       	1.09722     	2               	;
 J-664           	899.4       	0           	                	;
 J-665           	926.6       	0           	                	;
 J-666           	833.9       	2.00926     	11              	;
 J-667           	836.1       	9.50231     	11              	;
 J-668           	869.8       	0.28704     	2               	;
 J-669           	868.4       	0.03472     	1               	;
 J-67            	837.1       	6           	11              	;
 J-670           	846.9       	0           	                	;
 J-671           	837.3       	0.1713      	11              	;
 J-672           	871.1       	0.33102     	11              	;
 J-673           	858.4       	0.36574     	11              	;
 J-674           	874.8       	0.03472     	2               	;
 J-675           	812.9       	0           	                	;
 J-676           	794.3       	0           	                	;
 J-677           	839.4       	2.86574     	11              	;
 J-678           	870.4       	2.25926     	1               	;
 J-679           	905.3       	0           	                	;
 J-68            	844.9       	0           	                	;
 J-680           	805.2       	5.27083     	11              	;
 J-681           	800.8       	0           	                	;
 J-682           	865.2       	15.2963     	11              	;
 J-683           	869.9       	0           	                	;
 J-684           	819.2       	0.76389     	11              	;
 J-685           	869.8       	1.87037     	2               	;
 J-686           	921.8       	0.89815     	2               	;
 J-687           	927.5       	0           	                	;
 J-688           	861.6       	0.18519     	11              	;
 J-689           	846.8       	1.2662      	1               	;
 J-69            	822.6       	0.7662      	11              	;
 J-690           	862         	0           	                	;
 J-691           	837.4       	0           	                	;
 J-692           	936.1       	0.17361     	2               	;
 J-693           	806.3       	0.00463     	11              	;
 J-694           	875.4       	0           	                	;
 J-695           	907         	0           	                	;
 J-696           	792.6       	0.25926     	11              	;
 J-697           	891.8       	1.34028     	11              	;
 J-698           	847.3       	1.79861     	2               	;
 J-699           	892.7       	0           	                	;
 J-7             	837.7       	1.68519     	11              	;
 J-70            	872.8       	0           	                	;
 J-700           	898.7       	0           	                	;
 J-701           	810.2       	1.02778     	11              	;
 J-702           	818.4       	1.28241     	11              	;
 J-703           	916.8       	0.57639     	11              	;
 J-704           	822.8       	0           	                	;
 J-705           	838         	0           	                	;
 J-706           	821         	0.19213     	11              	;
 J-707           	834         	0.19444     	11              	;
 J-708           	796         	0.6875      	2               	;
 J-709           	796         	1           	11              	;
 J-71            	860.8       	1.40509     	11              	;
 J-710           	834.1       	0           	                	;
 J-711           	886.9       	0           	                	;
 J-712           	849.5       	0.01852     	11              	;
 J-713           	901.8       	0           	                	;
 J-714           	884.1       	0.40278     	11              	;
 J-715           	896.9       	2           	2               	;
 J-716           	842.8       	0           	                	;
 J-717           	869.3       	0           	                	;
 J-718           	886.4       	3.3912      	11              	;
 J-719           	873.3       	0.48611     	2               	;
 J-72            	861.3       	0.21528     	11              	;
 J-720           	891.8       	0.74769     	11              	;
 J-721           	897.6       	0           	                	;
 J-722           	897.5       	0           	                	;
 J-723           	897.5       	0           	                	;
 J-724           	801.7       	0           	                	;
 J-725           	892.3       	0           	                	;
 J-726           	897.6       	3.73611     	1               	;
 J-727           	887.4       	0           	                	;
 J-728           	810.8       	1.11343     	11              	;
 J-729           	859.2       	0           	                	;
 J-73            	880.5       	0           	                	;
 J-730           	843.9       	0           	                	;
 J-731           	789         	0           	                	;
 J-732           	800         	0           	                	;
 J-733           	790.7       	0           	                	;
 J-734           	806.3       	0           	                	;
 J-735           	789         	0           	                	;
 J-736           	813.1       	0           	                	;
 J-737           	891         	0           	                	;
 J-738           	845.8       	0           	                	;
 J-739           	897.6       	0.18287     	1               	;
 J-74            	880.8       	0           	                	;
 J-740           	883.2       	2           	11              	;
 J-741           	896.4       	2           	11              	;
 J-742           	882.1       	2           	11              	;
 J-743           	867.9       	0           	                	;
 J-744           	934.6       	4.92593     	11              	;
 J-745           	865.7       	33.7685     	2               	;
 J-746           	869.8       	0           	                	;
 J-747           	813.5       	0.25232     	2               	;
 J-748           	851.5       	11.1042     	2               	;
 J-749           	869.8       	1.42593     	2               	;
 J-75            	867.2       	3           	11              	;
 J-750           	873.6       	1.75694     	2               	;
 J-751           	868.5       	0.13194     	2               	;
 J-752           	881.6       	0           	                	;
 J-753           	907         	0.4213      	2               	;
 J-754           	892.4       	0           	                	;
 J-755           	893.1       	0           	                	;
 J-756           	892.4       	0           	                	;
 J-757           	892.4       	0           	                	;
 J-758           	893.1       	0           	                	;
 J-759           	892.4       	0           	                	;
 J-76            	850.7       	0           	                	;
 J-760           	876.4       	0           	                	;
 J-761           	875         	0           	                	;
 J-77            	843.4       	0           	                	;
 J-78            	842.4       	1.17361     	11              	;
 J-79            	855.2       	0           	                	;
 J-8             	837         	0.12037     	11              	;
 J-80            	807.9       	1.88657     	11              	;
 J-81            	892.6       	0.90972     	1               	;
 J-82            	892         	0.54167     	1               	;
 J-83            	847.8       	1.30787     	11              	;
 J-84            	890.6       	1.45        	11              	;
 J-85            	873.3       	1.14815     	11              	;
 J-86            	871.5       	0.10417     	11              	;
 J-87            	822.2       	6.6         	11              	;
 J-88            	837.5       	0.60185     	1               	;
 J-89            	876.6       	0           	                	;
 J-9             	804.9       	0           	                	;
 J-90            	892.1       	1.60648     	11              	;
 J-91            	883.3       	0.30324     	2               	;
 J-92            	821.8       	1.03935     	2               	;
 J-93            	808.2       	0.28009     	11              	;
 J-94            	849.8       	0           	                	;
 J-95            	804.1       	0           	                	;
 J-96            	901.4       	0.06944     	11              	;
 J-97            	903.3       	0           	                	;
 J-98            	832.2       	0           	                	;
 J-99            	816.6       	0           	                	;
 I-Pump-1        	789         	0           	                	;
 I-Pump-2        	789         	0           	                	;
 I-Pump-3        	892.4       	0           	                	;
 O-AV-1          	892.4       	0           	                	;
 I-AV-2          	875         	0           	                	;
 O-Pump-1        	789         	0           	                	;
 O-Pump-2        	789         	0           	                	;
 O-Pump-3        	892.4       	0           	                	;

[RESERVOIRS]
;ID              	Head        	Pattern         
 R1              	797         	Res1            	;
 T-1             	1030.25     	Res2            	;
 T-2             	1025        	Res3            	;
 T-3             	946         	Res4            	;

[TANKS]
;ID              	Elevation   	InitLevel   	MinLevel    	MaxLevel    	Diameter    	MinVol      	VolCurve

[PIPES]
;ID              	Node1           	Node2           	Length      	Diameter    	Roughness   	MinorLoss   	Status
 P-1             	J-1             	J-2             	3900.659    	12          	130         	0           	Open  	;
 P-10            	J-17            	J-18            	2309.86     	8           	140         	0           	Open  	;
 P-100           	J-164           	J-128           	3121.75     	16          	130         	0           	Open  	;
 P-101           	J-166           	J-167           	449.839     	12          	130         	0           	Open  	;
 P-102           	J-168           	J-169           	234.339     	1           	130         	0           	Open  	;
 P-103           	J-170           	J-171           	505.399     	6           	120         	0           	Open  	;
 P-104           	J-172           	J-173           	296.779     	6           	140         	0           	Open  	;
 P-105           	J-174           	J-175           	94.379      	6           	130         	0           	Open  	;
 P-106           	J-176           	J-177           	477.82      	6           	140         	0           	Open  	;
 P-107           	J-178           	J-179           	809.28      	6           	130         	0           	Open  	;
 P-108           	J-118           	J-180           	294.97      	2           	130         	0           	Open  	;
 P-109           	J-181           	J-182           	78.36       	6           	40          	0           	Open  	;
 P-11            	J-19            	J-20            	202.679     	6           	40          	0           	Open  	;
 P-110           	J-183           	J-184           	166.389     	4           	100         	0           	Open  	;
 P-111           	J-124           	J-185           	905.01      	6           	70          	0           	Open  	;
 P-112           	J-186           	J-187           	745.559     	12          	40          	0           	Open  	;
 P-113           	J-188           	J-189           	10.26       	4           	40          	0           	Open  	;
 P-114           	J-190           	J-191           	515.25      	6           	140         	0           	Open  	;
 P-115           	J-136           	J-141           	384.589     	2           	130         	0           	Open  	;
 P-116           	J-192           	J-722           	425.89      	6           	40          	0           	Open  	;
 P-117           	J-194           	J-190           	41.45       	6           	140         	0           	Open  	;
 P-118           	J-195           	J-169           	380.95      	1.25        	130         	0           	Open  	;
 P-119           	J-176           	J-171           	72.3        	6           	140         	0           	Open  	;
 P-12            	J-21            	J-22            	425.67      	12          	130         	0           	Open  	;
 P-120           	J-196           	J-197           	8.34        	6           	40          	0           	Open  	;
 P-121           	J-166           	J-198           	24.92       	6           	120         	0           	Open  	;
 P-122           	J-138           	J-199           	349.82      	6           	120         	0           	Open  	;
 P-123           	J-66            	J-200           	10.02       	4           	100         	0           	Open  	;
 P-124           	J-128           	J-62            	1197.68     	16          	130         	0           	Open  	;
 P-125           	J-124           	J-202           	666.26      	6           	70          	0           	Open  	;
 P-126           	J-203           	J-204           	690.7       	6           	130         	0           	Open  	;
 P-127           	J-65            	J-160           	168.08      	6           	120         	0           	Open  	;
 P-128           	J-205           	J-206           	130.919     	6           	40          	0           	Open  	;
 P-129           	J-125           	J-133           	763.44      	6           	130         	0           	Open  	;
 P-13            	J-23            	J-24            	351.489     	6           	40          	0           	Open  	;
 P-130           	J-197           	J-207           	471.019     	6           	40          	0           	Open  	;
 P-131           	J-130           	J-208           	127.669     	2           	130         	0           	Open  	;
 P-132           	J-209           	J-210           	701.9       	6           	40          	0           	Open  	;
 P-133           	J-211           	J-212           	548.359     	4           	70          	0           	Open  	;
 P-134           	J-213           	J-214           	159.039     	6           	40          	0           	Open  	;
 P-135           	J-215           	J-216           	452.26      	6           	120         	0           	Open  	;
 P-136           	J-217           	J-218           	190.36      	6           	130         	0           	Open  	;
 P-137           	J-219           	J-130           	81.839      	2           	130         	0           	Open  	;
 P-138           	J-154           	J-220           	607.409     	6           	130         	0           	Open  	;
 P-139           	J-222           	J-84            	519.119     	6           	40          	0           	Open  	;
 P-14            	J-25            	J-26            	366.38      	6           	40          	0           	Open  	;
 P-140           	J-26            	J-223           	429.69      	4           	40          	0           	Open  	;
 P-141           	J-224           	J-225           	54.209      	4           	40          	0           	Open  	;
 P-142           	J-226           	J-227           	1730.04     	16          	130         	0           	Open  	;
 P-143           	J-228           	J-156           	106.419     	6           	130         	0           	Open  	;
 P-144           	J-79            	J-139           	377.1       	4           	100         	0           	Open  	;
 P-145           	J-230           	J-63            	197.839     	6           	130         	0           	Open  	;
 P-146           	J-231           	J-184           	197.99      	6           	120         	0           	Open  	;
 P-147           	J-232           	J-126           	325.089     	6           	120         	0           	Open  	;
 P-148           	J-135           	J-233           	381.579     	6           	120         	0           	Open  	;
 P-149           	J-234           	J-235           	173.139     	6           	130         	0           	Open  	;
 P-15            	J-27            	J-28            	122.629     	8           	40          	0           	Open  	;
 P-150           	J-167           	J-236           	148.479     	1.25        	130         	0           	Open  	;
 P-151           	J-237           	J-238           	40.889      	2           	130         	0           	Open  	;
 P-152           	J-239           	J-240           	16.26       	6           	40          	0           	Open  	;
 P-153           	J-241           	J-194           	241.389     	6           	140         	0           	Open  	;
 P-154           	J-242           	J-194           	158.119     	6           	140         	0           	Open  	;
 P-155           	J-243           	J-244           	513.169     	6           	130         	0           	Open  	;
 P-156           	J-237           	J-245           	1482.599    	4           	130         	0           	Open  	;
 P-157           	J-190           	J-725           	335.5       	6           	140         	0           	Open  	;
 P-158           	J-174           	J-247           	81.379      	6           	130         	0           	Open  	;
 P-159           	J-248           	J-249           	461.19      	6           	140         	0           	Open  	;
 P-16            	J-29            	J-30            	154.94      	6           	130         	0           	Open  	;
 P-160           	J-195           	J-166           	674.52      	6           	120         	0           	Open  	;
 P-161           	J-732           	J-250           	728.559     	16          	70          	0           	Open  	;
 P-162           	J-252           	J-253           	595.109     	8           	40          	0           	Open  	;
 P-163           	J-245           	J-254           	859.979     	4           	130         	0           	Open  	;
 P-164           	J-255           	J-173           	285.94      	6           	140         	0           	Open  	;
 P-165           	J-256           	J-257           	252.809     	4           	40          	0           	Open  	;
 P-166           	J-258           	J-259           	247.339     	8           	40          	0           	Open  	;
 P-167           	J-260           	J-261           	444.779     	8           	130         	0           	Open  	;
 P-168           	J-262           	J-263           	132.91      	6           	120         	0           	Open  	;
 P-169           	J-260           	J-264           	417.209     	8           	130         	0           	Open  	;
 P-17            	J-31            	J-32            	662.44      	6           	120         	0           	Open  	;
 P-170           	J-265           	J-266           	638.9       	2           	130         	0           	Open  	;
 P-171           	J-240           	J-267           	1155.91     	6           	40          	0           	Open  	;
 P-172           	J-268           	J-241           	1009.559    	6           	140         	0           	Open  	;
 P-173           	J-171           	J-269           	1627.15     	6           	120         	0           	Open  	;
 P-174           	J-270           	J-271           	146.38      	6           	130         	0           	Open  	;
 P-175           	J-272           	J-273           	1532.729    	8           	120         	0           	Open  	;
 P-176           	J-274           	J-257           	599.65      	8           	40          	0           	Open  	;
 P-177           	J-275           	J-276           	87.83       	12          	120         	0           	Open  	;
 P-178           	J-277           	J-267           	622.08      	6           	40          	0           	Open  	;
 P-179           	J-184           	J-278           	190.699     	6           	120         	0           	Open  	;
 P-18            	J-33            	J-34            	1171.099    	6           	40          	0           	Open  	;
 P-180           	J-120           	J-279           	191.49      	6           	40          	0           	Open  	;
 P-181           	J-147           	J-280           	411.049     	6           	130         	0           	Open  	;
 P-182           	J-88            	J-281           	301.42      	6           	40          	0           	Open  	;
 P-183           	J-274           	J-281           	267.22      	10          	40          	0           	Open  	;
 P-184           	J-282           	J-283           	674.739     	4           	40          	0           	Open  	;
 P-185           	J-281           	J-284           	172.74      	6           	40          	0           	Open  	;
 P-186           	J-285           	J-136           	72.419      	2           	130         	0           	Open  	;
 P-187           	J-286           	J-287           	378.989     	4           	100         	0           	Open  	;
 P-188           	J-732           	J-288           	483.75      	10          	70          	0           	Open  	;
 P-189           	J-289           	J-217           	121.43      	6           	130         	0           	Open  	;
 P-19            	J-35            	J-36            	878.78      	6           	130         	0           	Open  	;
 P-190           	J-290           	J-291           	121.01      	6           	40          	0           	Open  	;
 P-191           	J-292           	J-293           	205.19      	2           	130         	0           	Open  	;
 P-192           	J-294           	J-295           	263.989     	6           	130         	0           	Open  	;
 P-193           	J-242           	J-296           	531.57      	8           	140         	0           	Open  	;
 P-194           	J-259           	J-12            	576.19      	6           	40          	0           	Open  	;
 P-195           	J-257           	J-297           	216.88      	8           	40          	0           	Open  	;
 P-196           	J-298           	J-299           	150.229     	6           	40          	0           	Open  	;
 P-197           	J-300           	J-301           	822.28      	12          	120         	0           	Open  	;
 P-198           	J-302           	J-730           	530.739     	8           	140         	0           	Open  	;
 P-199           	J-303           	J-232           	340.709     	6           	120         	0           	Open  	;
 P-2             	J-3             	J-4             	595.69      	2           	130         	0           	Open  	;
 P-20            	J-37            	J-38            	607.46      	8           	130         	0           	Open  	;
 P-200           	J-304           	J-237           	818.14      	2           	130         	0           	Open  	;
 P-201           	J-273           	J-305           	223.1       	8           	120         	0           	Open  	;
 P-202           	J-175           	J-306           	356.94      	2           	130         	0           	Open  	;
 P-203           	J-307           	J-113           	455.17      	6           	140         	0           	Open  	;
 P-204           	J-213           	J-309           	1723.729    	6           	40          	0           	Open  	;
 P-205           	J-256           	J-310           	89.599      	6           	40          	0           	Open  	;
 P-206           	J-311           	J-312           	323.73      	6           	130         	0           	Open  	;
 P-207           	J-313           	J-135           	411.959     	6           	120         	0           	Open  	;
 P-208           	J-314           	J-258           	174.44      	8           	40          	0           	Open  	;
 P-209           	J-315           	J-316           	290.899     	6           	130         	0           	Open  	;
 P-21            	J-39            	J-40            	232.559     	6           	130         	0           	Open  	;
 P-210           	J-143           	J-317           	405.97      	10          	120         	0           	Open  	;
 P-211           	J-318           	J-319           	58.22       	4           	100         	0           	Open  	;
 P-212           	J-184           	J-318           	203.619     	4           	100         	0           	Open  	;
 P-213           	J-212           	J-203           	292.6       	6           	70          	0           	Open  	;
 P-214           	J-320           	T-1             	83.809      	16          	130         	0           	Open  	;
 P-215           	J-284           	J-256           	430.69      	6           	40          	0           	Open  	;
 P-216           	J-322           	J-323           	484.589     	12          	130         	0           	Open  	;
 P-217           	J-324           	J-325           	417.959     	8           	120         	0           	Open  	;
 P-218           	J-326           	J-138           	112.36      	6           	120         	0           	Open  	;
 P-219           	J-116           	J-327           	222.75      	6           	40          	0           	Open  	;
 P-22            	J-41            	J-760           	313.239     	6           	130         	0           	Open  	;
 P-220           	J-328           	J-329           	3145.629    	3           	140         	0           	Open  	;
 P-221           	J-732           	J-266           	490.2       	2           	130         	0           	Open  	;
 P-222           	J-330           	J-331           	752.869     	6           	120         	0           	Open  	;
 P-223           	J-332           	J-333           	2753.919    	12          	130         	0           	Open  	;
 P-224           	J-134           	J-334           	419.23      	8           	120         	0           	Open  	;
 P-225           	J-335           	J-336           	261.329     	4           	100         	0           	Open  	;
 P-226           	J-337           	J-338           	483.19      	6           	130         	0           	Open  	;
 P-227           	J-339           	J-340           	532.989     	8           	130         	0           	Open  	;
 P-228           	J-341           	J-337           	212.139     	6           	130         	0           	Open  	;
 P-229           	J-342           	J-35            	460.579     	6           	130         	0           	Open  	;
 P-23            	J-43            	J-15            	286.75      	4           	70          	0           	Open  	;
 P-230           	J-343           	J-344           	456.059     	6           	70          	0           	Open  	;
 P-231           	J-244           	J-306           	106.48      	6           	120         	0           	Open  	;
 P-232           	J-45            	J-520           	361.51      	12          	130         	0           	Open  	;
 P-233           	J-345           	J-346           	294.059     	6           	120         	0           	Open  	;
 P-234           	J-347           	J-348           	507.45      	4           	100         	0           	Open  	;
 P-235           	J-331           	J-349           	677.2       	6           	120         	0           	Open  	;
 P-236           	J-350           	J-223           	209.13      	6           	40          	0           	Open  	;
 P-237           	J-351           	J-250           	2966.969    	16          	70          	0           	Open  	;
 P-238           	J-26            	J-352           	165.889     	6           	40          	0           	Open  	;
 P-239           	J-353           	J-354           	960.989     	10          	120         	0           	Open  	;
 P-24            	J-44            	J-45            	3431.12     	12          	130         	0           	Open  	;
 P-240           	J-83            	J-355           	385.16      	6           	120         	0           	Open  	;
 P-241           	J-356           	J-357           	422.459     	8           	130         	0           	Open  	;
 P-242           	J-358           	J-11            	58.119      	6           	40          	0           	Open  	;
 P-243           	J-359           	J-360           	227.32      	1.5         	130         	0           	Open  	;
 P-244           	J-361           	J-264           	290.38      	12          	130         	0           	Open  	;
 P-245           	J-362           	J-68            	429.929     	4           	40          	0           	Open  	;
 P-246           	J-363           	J-642           	1138.219    	12          	40          	0           	Open  	;
 P-247           	J-364           	J-25            	250.839     	4           	40          	0           	Open  	;
 P-248           	J-365           	J-366           	300.429     	10          	120         	0           	Open  	;
 P-249           	J-209           	J-367           	505.16      	6           	40          	0           	Open  	;
 P-25            	J-46            	J-47            	482.059     	12          	130         	0           	Open  	;
 P-250           	J-368           	J-119           	445.329     	6           	120         	0           	Open  	;
 P-251           	J-178           	J-369           	293.29      	6           	130         	0           	Open  	;
 P-252           	J-154           	J-370           	328.459     	10          	130         	0           	Open  	;
 P-253           	J-42            	J-144           	1016.9      	6           	130         	0           	Open  	;
 P-254           	J-179           	J-144           	810.349     	6           	130         	0           	Open  	;
 P-255           	J-115           	J-371           	107.139     	4           	100         	0           	Open  	;
 P-256           	J-315           	J-186           	338.72      	6           	130         	0           	Open  	;
 P-257           	J-372           	J-81            	64.489      	2           	40          	0           	Open  	;
 P-258           	J-340           	J-356           	426.239     	8           	130         	0           	Open  	;
 P-259           	J-761           	T-2             	50.59       	18          	70          	0           	Open  	;
 P-26            	J-48            	J-49            	396.609     	8           	140         	0           	Open  	;
 P-260           	J-375           	J-376           	741.39      	10          	120         	0           	Open  	;
 P-261           	J-721           	J-193           	18.6        	6           	40          	0           	Open  	;
 P-262           	J-377           	J-368           	521.44      	6           	120         	0           	Open  	;
 P-263           	J-107           	J-378           	1069.069    	12          	120         	0           	Open  	;
 P-264           	J-81            	J-379           	799.78      	2           	40          	0           	Open  	;
 P-265           	J-380           	J-381           	307.839     	6           	120         	0           	Open  	;
 P-266           	J-368           	J-382           	158.279     	6           	120         	0           	Open  	;
 P-267           	J-319           	J-69            	175.25      	4           	40          	0           	Open  	;
 P-268           	J-369           	J-383           	386.88      	6           	130         	0           	Open  	;
 P-269           	J-126           	J-384           	372.779     	6           	120         	0           	Open  	;
 P-27            	J-50            	J-51            	5743.839    	6           	140         	0           	Open  	;
 P-270           	J-348           	J-335           	169.07      	6           	120         	0           	Open  	;
 P-271           	J-369           	J-110           	798.789     	6           	130         	0           	Open  	;
 P-272           	J-162           	J-141           	138.63      	2           	130         	0           	Open  	;
 P-273           	J-181           	J-197           	446.209     	6           	40          	0           	Open  	;
 P-274           	J-49            	J-102           	546.4       	8           	140         	0           	Open  	;
 P-275           	J-330           	J-385           	867.619     	4           	100         	0           	Open  	;
 P-276           	J-203           	J-386           	355.549     	6           	70          	0           	Open  	;
 P-277           	J-140           	J-387           	47.83       	4           	100         	0           	Open  	;
 P-278           	J-388           	J-389           	675.25      	6           	130         	0           	Open  	;
 P-279           	J-375           	J-390           	348.589     	10          	120         	0           	Open  	;
 P-28            	J-52            	J-53            	458.679     	12          	40          	0           	Open  	;
 P-280           	J-391           	J-392           	526.849     	6           	130         	0           	Open  	;
 P-281           	J-87            	J-393           	246.679     	4           	40          	0           	Open  	;
 P-282           	J-95            	J-394           	1369.68     	10          	40          	0           	Open  	;
 P-283           	J-394           	J-395           	498.38      	10          	40          	0           	Open  	;
 P-284           	J-396           	J-328           	4479.47     	6           	140         	0           	Open  	;
 P-285           	J-216           	J-397           	172.369     	6           	120         	0           	Open  	;
 P-286           	J-398           	J-361           	433.69      	12          	130         	0           	Open  	;
 P-287           	J-238           	J-272           	556.28      	6           	120         	0           	Open  	;
 P-288           	J-145           	J-399           	425.1       	6           	130         	0           	Open  	;
 P-289           	J-146           	J-217           	229.36      	6           	130         	0           	Open  	;
 P-29            	J-54            	J-201           	282.85      	6           	43          	0           	Open  	;
 P-290           	J-385           	J-400           	651.45      	2           	130         	0           	Open  	;
 P-291           	J-364           	J-401           	766.09      	2           	40          	0           	Open  	;
 P-292           	J-402           	J-209           	762.239     	6           	40          	0           	Open  	;
 P-293           	J-403           	J-404           	231.729     	4           	100         	0           	Open  	;
 P-294           	J-405           	J-192           	7.32        	6           	40          	0           	Open  	;
 P-295           	J-406           	J-616           	16.879      	6           	40          	0           	Open  	;
 P-296           	J-153           	J-462           	1589.27     	10          	130         	0           	Open  	;
 P-297           	J-409           	J-377           	98.15       	6           	40          	0           	Open  	;
 P-298           	J-357           	J-410           	280.85      	8           	130         	0           	Open  	;
 P-299           	J-411           	J-59            	648.179     	6           	40          	0           	Open  	;
 P-3             	J-5             	J-6             	9092.129    	6           	140         	0           	Open  	;
 P-30            	J-55            	J-56            	261.63      	8           	140         	0           	Open  	;
 P-300           	J-412           	J-411           	322.809     	6           	40          	0           	Open  	;
 P-301           	J-411           	J-413           	523.69      	6           	40          	0           	Open  	;
 P-302           	J-284           	J-414           	314.149     	6           	130         	0           	Open  	;
 P-303           	J-269           	J-195           	953.299     	6           	120         	0           	Open  	;
 P-304           	J-22            	J-30            	594.5       	12          	130         	0           	Open  	;
 P-305           	J-365           	J-349           	600.549     	10          	120         	0           	Open  	;
 P-306           	J-339           	J-415           	734.75      	6           	130         	0           	Open  	;
 P-307           	J-416           	J-417           	44.04       	6           	40          	0           	Open  	;
 P-308           	J-418           	J-419           	859.179     	8           	120         	0           	Open  	;
 P-309           	J-199           	J-420           	226.75      	6           	120         	0           	Open  	;
 P-31            	J-57            	J-58            	380.75      	6           	40          	0           	Open  	;
 P-310           	J-419           	J-421           	48.13       	8           	120         	0           	Open  	;
 P-311           	J-422           	J-342           	772.83      	6           	140         	0           	Open  	;
 P-312           	J-272           	J-242           	265.97      	8           	140         	0           	Open  	;
 P-313           	J-33            	J-423           	374.22      	6           	40          	0           	Open  	;
 P-314           	J-210           	J-25            	719.359     	6           	40          	0           	Open  	;
 P-315           	J-193           	J-424           	24.299      	6           	40          	0           	Open  	;
 P-316           	J-178           	J-425           	764.76      	6           	130         	0           	Open  	;
 P-317           	J-370           	J-339           	323.22      	8           	130         	0           	Open  	;
 P-318           	J-254           	J-426           	309.2       	6           	120         	0           	Open  	;
 P-319           	J-74            	J-373           	106.069     	18          	70          	0           	Open  	;
 P-32            	J-59            	J-60            	411.779     	8           	40          	0           	Open  	;
 P-320           	J-188           	J-416           	224.22      	6           	40          	0           	Open  	;
 P-321           	J-341           	J-178           	265.929     	6           	130         	0           	Open  	;
 P-322           	J-427           	J-422           	499.5       	6           	140         	0           	Open  	;
 P-323           	J-428           	J-202           	553.359     	8           	70          	0           	Open  	;
 P-324           	J-163           	J-131           	596.46      	4           	40          	0           	Open  	;
 P-325           	J-42            	J-341           	266.119     	6           	130         	0           	Open  	;
 P-326           	J-423           	J-429           	40.58       	10          	120         	0           	Open  	;
 P-327           	J-344           	J-185           	280.589     	6           	70          	0           	Open  	;
 P-328           	J-430           	J-260           	403.19      	8           	130         	0           	Open  	;
 P-329           	J-431           	J-432           	453.519     	6           	40          	0           	Open  	;
 P-33            	J-61            	J-62            	37.759      	16          	40          	0           	Open  	;
 P-330           	J-277           	J-433           	203.05      	6           	130         	0           	Open  	;
 P-331           	J-215           	J-298           	403.48      	6           	40          	0           	Open  	;
 P-332           	J-434           	J-243           	289.41      	6           	130         	0           	Open  	;
 P-333           	J-435           	J-436           	107.919     	2           	130         	0           	Open  	;
 P-334           	J-433           	J-174           	223.169     	6           	130         	0           	Open  	;
 P-335           	J-437           	J-215           	385.89      	6           	120         	0           	Open  	;
 P-336           	J-438           	J-311           	67.9        	8           	130         	0           	Open  	;
 P-337           	J-25            	J-409           	449.109     	6           	40          	0           	Open  	;
 P-338           	J-439           	J-259           	157.3       	6           	40          	0           	Open  	;
 P-339           	J-366           	J-423           	408.869     	10          	120         	0           	Open  	;
 P-34            	J-63            	J-64            	82.58       	6           	130         	0           	Open  	;
 P-340           	J-398           	J-440           	421.089     	10          	120         	0           	Open  	;
 P-341           	J-441           	J-442           	104.47      	2           	130         	0           	Open  	;
 P-342           	J-443           	J-444           	1103.579    	6           	130         	0           	Open  	;
 P-343           	J-445           	J-32            	342.98      	2           	130         	0           	Open  	;
 P-344           	J-446           	J-150           	335.369     	8           	130         	0           	Open  	;
 P-345           	J-447           	J-448           	709.09      	6           	40          	0           	Open  	;
 P-346           	J-449           	J-4             	1112.28     	6           	120         	0           	Open  	;
 P-347           	J-450           	J-451           	330.32      	4           	100         	0           	Open  	;
 P-348           	J-451           	J-452           	243.57      	2           	130         	0           	Open  	;
 P-349           	J-248           	J-453           	156.369     	6           	140         	0           	Open  	;
 P-35            	J-65            	J-66            	470.57      	4           	100         	0           	Open  	;
 P-350           	J-454           	J-724           	274.67      	8           	130         	0           	Open  	;
 P-351           	J-456           	J-457           	188.169     	8           	130         	0           	Open  	;
 P-352           	J-458           	J-308           	875.02      	6           	130         	0           	Open  	;
 P-353           	J-459           	J-270           	84.41       	6           	130         	0           	Open  	;
 P-354           	J-191           	J-248           	536.59      	6           	140         	0           	Open  	;
 P-355           	J-259           	J-441           	695.96      	6           	40          	0           	Open  	;
 P-356           	J-307           	J-458           	83.949      	6           	130         	0           	Open  	;
 P-357           	J-173           	J-249           	250.69      	6           	140         	0           	Open  	;
 P-358           	J-205           	J-460           	516.169     	12          	40          	0           	Open  	;
 P-359           	J-441           	J-282           	1303.93     	6           	40          	0           	Open  	;
 P-36            	J-28            	J-67            	487.559     	6           	40          	0           	Open  	;
 P-360           	J-407           	J-431           	515.239     	6           	40          	0           	Open  	;
 P-361           	J-232           	J-155           	908.559     	6           	130         	0           	Open  	;
 P-362           	J-264           	J-21            	205.25      	12          	130         	0           	Open  	;
 P-363           	J-35            	J-553           	180.509     	6           	130         	0           	Open  	;
 P-364           	J-463           	J-637           	1549.55     	12          	130         	0           	Open  	;
 P-365           	J-464           	J-155           	353.41      	6           	120         	0           	Open  	;
 P-366           	J-465           	J-466           	530.15      	6           	40          	0           	Open  	;
 P-367           	J-467           	J-468           	392.779     	6           	40          	0           	Open  	;
 P-368           	J-469           	J-470           	299.119     	4           	40          	0           	Open  	;
 P-369           	J-471           	J-344           	628.869     	6           	70          	0           	Open  	;
 P-37            	J-68            	J-69            	679.02      	4           	40          	0           	Open  	;
 P-370           	J-472           	J-17            	2070.979    	8           	140         	0           	Open  	;
 P-371           	J-421           	J-13            	475.779     	8           	120         	0           	Open  	;
 P-372           	J-249           	J-473           	287.44      	6           	140         	0           	Open  	;
 P-373           	J-223           	J-474           	633.08      	6           	40          	0           	Open  	;
 P-374           	J-475           	J-476           	2398.679    	8           	130         	0           	Open  	;
 P-375           	J-477           	J-478           	926.219     	6           	130         	0           	Open  	;
 P-376           	J-221           	J-246           	300.309     	6           	140         	0           	Open  	;
 P-377           	J-79            	J-479           	482.329     	4           	100         	0           	Open  	;
 P-378           	J-179           	J-111           	538.7       	6           	130         	0           	Open  	;
 P-379           	J-306           	J-240           	765.34      	6           	120         	0           	Open  	;
 P-38            	J-70            	J-60            	395.489     	6           	40          	0           	Open  	;
 P-380           	J-470           	J-406           	644.59      	4           	40          	0           	Open  	;
 P-381           	J-480           	J-481           	477.44      	8           	120         	0           	Open  	;
 P-382           	J-482           	J-314           	122.839     	8           	40          	0           	Open  	;
 P-383           	J-740           	J-742           	834.369     	6           	130         	0           	Open  	;
 P-384           	J-485           	J-399           	407.48      	8           	140         	0           	Open  	;
 P-385           	J-486           	J-31            	367.549     	6           	120         	0           	Open  	;
 P-386           	J-487           	J-488           	50.86       	10          	120         	0           	Open  	;
 P-387           	J-486           	J-489           	362.119     	6           	120         	0           	Open  	;
 P-388           	J-324           	J-469           	278.79      	6           	120         	0           	Open  	;
 P-389           	J-139           	J-148           	168.259     	4           	100         	0           	Open  	;
 P-39            	J-55            	J-71            	160.149     	8           	140         	0           	Open  	;
 P-390           	J-461           	J-490           	559.849     	6           	130         	0           	Open  	;
 P-391           	J-229           	J-497           	602         	6           	40          	0           	Open  	;
 P-392           	J-427           	J-491           	1199.3      	6           	140         	0           	Open  	;
 P-393           	J-489           	J-728           	238.479     	6           	130         	0           	Open  	;
 P-394           	J-487           	J-493           	1604.459    	12          	120         	0           	Open  	;
 P-395           	J-469           	J-494           	254.61      	6           	120         	0           	Open  	;
 P-396           	J-495           	J-324           	996.2       	8           	120         	0           	Open  	;
 P-397           	J-23            	J-432           	881.09      	6           	130         	0           	Open  	;
 P-398           	J-252           	J-496           	261.13      	8           	40          	0           	Open  	;
 P-399           	J-497           	J-417           	232.24      	6           	40          	0           	Open  	;
 P-4             	J-3             	J-7             	519.5       	6           	130         	0           	Open  	;
 P-40            	J-71            	J-72            	309.029     	6           	140         	0           	Open  	;
 P-400           	J-498           	J-499           	53.7        	6           	120         	0           	Open  	;
 P-401           	J-428           	J-500           	57.83       	6           	40          	0           	Open  	;
 P-402           	J-34            	J-222           	209.3       	6           	130         	0           	Open  	;
 P-403           	J-463           	J-363           	133.55      	12          	130         	0           	Open  	;
 P-404           	J-501           	J-406           	699.239     	6           	40          	0           	Open  	;
 P-405           	J-502           	J-143           	164.6       	10          	130         	0           	Open  	;
 P-406           	J-287           	J-353           	576.75      	4           	100         	0           	Open  	;
 P-407           	J-267           	J-358           	33.709      	6           	40          	0           	Open  	;
 P-408           	J-503           	J-474           	194.289     	4           	40          	0           	Open  	;
 P-409           	J-325           	J-378           	256.399     	8           	120         	0           	Open  	;
 P-41            	J-73            	J-74            	31.02       	18          	70          	0           	Open  	;
 P-410           	J-86            	J-504           	1017.13     	6           	140         	0           	Open  	;
 P-411           	J-387           	J-505           	488.32      	6           	120         	0           	Open  	;
 P-412           	J-358           	J-183           	253.339     	4           	100         	0           	Open  	;
 P-413           	J-417           	J-501           	263.559     	6           	40          	0           	Open  	;
 P-414           	J-495           	J-253           	684.52      	6           	40          	0           	Open  	;
 P-415           	J-378           	J-506           	1624.599    	12          	120         	0           	Open  	;
 P-416           	J-381           	J-405           	6.05        	6           	40          	0           	Open  	;
 P-417           	J-507           	J-330           	19.54       	6           	40          	0           	Open  	;
 P-418           	J-508           	J-498           	205.74      	2.5         	100         	0           	Open  	;
 P-419           	J-404           	J-405           	457.309     	4           	100         	0           	Open  	;
 P-42            	J-75            	J-391           	1262.5      	10          	130         	0           	Open  	;
 P-420           	J-37            	J-48            	82.11       	8           	140         	0           	Open  	;
 P-421           	J-509           	J-413           	701.539     	6           	40          	0           	Open  	;
 P-422           	J-464           	J-510           	821.789     	6           	130         	0           	Open  	;
 P-423           	J-77            	J-511           	558.25      	4           	40          	0           	Open  	;
 P-424           	J-278           	J-319           	77.919      	6           	120         	0           	Open  	;
 P-425           	J-246           	J-268           	285.51      	6           	140         	0           	Open  	;
 P-426           	J-458           	J-270           	98.43       	6           	130         	0           	Open  	;
 P-427           	J-30            	J-322           	239.88      	12          	130         	0           	Open  	;
 P-428           	J-512           	J-513           	238.259     	6           	40          	0           	Open  	;
 P-429           	J-274           	J-514           	265.19      	10          	40          	0           	Open  	;
 P-43            	J-77            	J-78            	10.029      	6           	40          	0           	Open  	;
 P-430           	J-466           	J-367           	684.84      	6           	40          	0           	Open  	;
 P-431           	J-515           	J-430           	356.13      	8           	130         	0           	Open  	;
 P-432           	J-731           	J-732           	1.21        	18          	70          	0           	Open  	;
 P-433           	J-340           	J-517           	302         	6           	130         	0           	Open  	;
 P-434           	J-419           	J-518           	444.529     	8           	120         	0           	Open  	;
 P-435           	J-349           	J-519           	28.94       	10          	120         	0           	Open  	;
 P-436           	J-440           	J-515           	503.119     	8           	130         	0           	Open  	;
 P-437           	J-227           	J-398           	412.01      	10          	130         	0           	Open  	;
 P-438           	J-317           	J-353           	329.109     	10          	120         	0           	Open  	;
 P-439           	J-513           	J-290           	468.23      	6           	40          	0           	Open  	;
 P-44            	J-79            	J-80            	355.41      	4           	100         	0           	Open  	;
 P-440           	J-280           	J-100           	33.659      	6           	120         	0           	Open  	;
 P-441           	J-333           	J-746           	1148.719    	12          	130         	0           	Open  	;
 P-442           	J-90            	J-510           	371.89      	6           	120         	0           	Open  	;
 P-443           	J-521           	J-729           	491.269     	6           	140         	0           	Open  	;
 P-444           	J-521           	J-523           	430.829     	1           	130         	0           	Open  	;
 P-445           	J-524           	J-525           	525.02      	16          	130         	0           	Open  	;
 P-446           	J-525           	J-526           	660         	16          	130         	0           	Open  	;
 P-447           	J-448           	J-527           	287.059     	6           	40          	0           	Open  	;
 P-448           	J-528           	J-529           	5821.509    	3           	140         	0           	Open  	;
 P-449           	J-169           	J-167           	578.03      	1.25        	130         	0           	Open  	;
 P-45            	J-81            	J-82            	88.069      	2           	40          	0           	Open  	;
 P-450           	J-530           	J-504           	378.07      	6           	140         	0           	Open  	;
 P-451           	J-384           	J-133           	857.799     	6           	120         	0           	Open  	;
 P-452           	J-452           	J-445           	116.769     	4           	100         	0           	Open  	;
 P-453           	J-347           	J-148           	276.049     	4           	100         	0           	Open  	;
 P-454           	J-420           	J-90            	837.39      	6           	130         	0           	Open  	;
 P-455           	J-531           	J-437           	75.19       	6           	120         	0           	Open  	;
 P-456           	J-532           	J-533           	359.269     	4           	40          	0           	Open  	;
 P-457           	J-448           	J-512           	340.619     	6           	40          	0           	Open  	;
 P-458           	J-388           	J-534           	534.71      	6           	130         	0           	Open  	;
 P-459           	J-112           	J-535           	17435.359   	6           	140         	0           	Open  	;
 P-46            	J-83            	J-84            	790.099     	4           	100         	0           	Open  	;
 P-460           	J-4             	J-531           	105.11      	6           	120         	0           	Open  	;
 P-461           	J-536           	J-537           	929.479     	2           	100         	0           	Open  	;
 P-462           	J-532           	J-445           	367.91      	4           	40          	0           	Open  	;
 P-463           	J-538           	J-539           	618.349     	6           	130         	0           	Open  	;
 P-464           	J-540           	J-541           	195.72      	1.5         	140         	0           	Open  	;
 P-465           	J-531           	J-292           	225.929     	6           	120         	0           	Open  	;
 P-466           	J-542           	J-543           	1062.099    	6           	130         	0           	Open  	;
 P-467           	J-525           	J-542           	263.89      	12          	130         	0           	Open  	;
 P-468           	J-544           	J-521           	57.029      	6           	140         	0           	Open  	;
 P-469           	J-533           	J-545           	449.13      	4           	40          	0           	Open  	;
 P-47            	J-85            	J-86            	480.89      	6           	120         	0           	Open  	;
 P-470           	J-546           	J-540           	245.119     	6           	140         	0           	Open  	;
 P-471           	J-503           	J-196           	737.95      	6           	40          	0           	Open  	;
 P-472           	J-356           	J-50            	419.179     	8           	130         	0           	Open  	;
 P-473           	J-38            	J-547           	509.309     	8           	130         	0           	Open  	;
 P-474           	J-325           	J-498           	147.63      	6           	120         	0           	Open  	;
 P-475           	J-494           	J-325           	439.589     	6           	120         	0           	Open  	;
 P-476           	J-548           	J-549           	190.919     	6           	40          	0           	Open  	;
 P-477           	J-200           	J-550           	80.51       	4           	100         	0           	Open  	;
 P-478           	J-63            	J-551           	101.83      	6           	130         	0           	Open  	;
 P-479           	J-367           	J-552           	283.679     	6           	40          	0           	Open  	;
 P-48            	J-87            	J-88            	455.39      	6           	40          	0           	Open  	;
 P-480           	J-196           	J-253           	254.669     	6           	40          	0           	Open  	;
 P-481           	J-465           	J-350           	466.239     	6           	40          	0           	Open  	;
 P-482           	J-381           	J-713           	21.18       	10          	120         	0           	Open  	;
 P-483           	J-75            	J-153           	263.22      	10          	130         	0           	Open  	;
 P-484           	J-416           	J-19            	275.04      	6           	40          	0           	Open  	;
 P-485           	J-465           	J-581           	652.14      	6           	40          	0           	Open  	;
 P-486           	J-198           	J-449           	519.46      	6           	120         	0           	Open  	;
 P-487           	J-474           	J-495           	117.459     	6           	40          	0           	Open  	;
 P-488           	J-554           	J-754           	45.93       	10          	70          	0           	Open  	;
 P-489           	J-466           	J-210           	340.23      	6           	40          	0           	Open  	;
 P-49            	J-89            	J-90            	445.279     	6           	120         	0           	Open  	;
 P-490           	J-102           	J-55            	425.459     	8           	140         	0           	Open  	;
 P-491           	J-556           	J-557           	1118.109    	6           	140         	0           	Open  	;
 P-492           	J-299           	J-548           	21.659      	6           	40          	0           	Open  	;
 P-493           	J-488           	J-558           	971.479     	8           	120         	0           	Open  	;
 P-494           	J-4             	J-437           	181.72      	2           	130         	0           	Open  	;
 P-495           	J-493           	J-559           	829.289     	12          	120         	0           	Open  	;
 P-496           	J-560           	J-85            	431.01      	6           	120         	0           	Open  	;
 P-497           	J-561           	J-562           	294.899     	0.75        	130         	0           	Open  	;
 P-498           	J-558           	J-493           	547.28      	8           	120         	0           	Open  	;
 P-499           	J-563           	J-564           	726.2       	10          	70          	0           	Open  	;
 P-5             	J-8             	J-3             	462.91      	2           	130         	0           	Open  	;
 P-50            	J-91            	J-74            	106.089     	6           	130         	0           	Open  	;
 P-500           	J-334           	J-565           	115.01      	4           	100         	0           	Open  	;
 P-501           	J-10            	J-528           	1429.41     	6           	140         	0           	Open  	;
 P-502           	J-566           	J-567           	441.14      	6           	130         	0           	Open  	;
 P-503           	J-568           	J-569           	792.83      	6           	130         	0           	Open  	;
 P-504           	J-570           	J-571           	346.13      	6           	40          	0           	Open  	;
 P-505           	J-18            	J-572           	266.399     	6           	140         	0           	Open  	;
 P-506           	J-573           	J-186           	478.579     	12          	40          	0           	Open  	;
 P-507           	J-116           	J-574           	108.879     	6           	40          	0           	Open  	;
 P-508           	J-233           	J-575           	185.57      	6           	120         	0           	Open  	;
 P-509           	J-10            	J-576           	10454.29    	8           	140         	0           	Open  	;
 P-51            	J-92            	J-93            	366.38      	8           	130         	0           	Open  	;
 P-510           	J-200           	J-313           	70.12       	6           	120         	0           	Open  	;
 P-511           	J-360           	J-577           	361.089     	4           	100         	0           	Open  	;
 P-512           	J-85            	J-578           	1127.939    	6           	130         	0           	Open  	;
 P-513           	J-579           	J-213           	623.46      	6           	40          	0           	Open  	;
 P-514           	J-355           	J-402           	791.34      	4           	100         	0           	Open  	;
 P-515           	J-564           	J-580           	287.19      	10          	70          	0           	Open  	;
 P-516           	J-165           	J-53            	36.29       	6           	40          	0           	Closed	;
 P-517           	J-346           	J-712           	851.789     	6           	120         	0           	Open  	;
 P-518           	J-501           	J-188           	263.1       	4           	40          	0           	Open  	;
 P-519           	J-149           	J-83            	308.72      	4           	100         	0           	Open  	;
 P-52            	J-94            	J-95            	351.32      	10          	40          	0           	Open  	;
 P-520           	J-334           	J-582           	792.979     	4           	100         	0           	Open  	;
 P-521           	J-583           	J-584           	354.679     	6           	120         	0           	Open  	;
 P-522           	J-11            	J-231           	213.74      	6           	120         	0           	Open  	;
 P-523           	J-585           	J-322           	263         	8           	130         	0           	Open  	;
 P-524           	J-263           	J-233           	237.029     	6           	120         	0           	Open  	;
 P-525           	J-24            	J-586           	188.419     	6           	40          	0           	Open  	;
 P-526           	J-84            	J-402           	324.41      	6           	40          	0           	Open  	;
 P-527           	J-587           	J-355           	81.069      	4           	100         	0           	Open  	;
 P-528           	J-588           	J-480           	103.779     	8           	120         	0           	Open  	;
 P-529           	J-480           	J-301           	236.139     	8           	120         	0           	Open  	;
 P-53            	J-96            	J-97            	145.839     	10          	120         	0           	Open  	;
 P-530           	J-583           	J-342           	490.66      	6           	140         	0           	Open  	;
 P-531           	J-589           	J-590           	655.419     	2           	130         	0           	Open  	;
 P-532           	J-591           	J-592           	879.51      	8           	120         	0           	Open  	;
 P-533           	J-593           	J-589           	1473.26     	6           	40          	0           	Open  	;
 P-534           	J-114           	J-591           	299.47      	8           	120         	0           	Open  	;
 P-535           	J-594           	J-595           	277.429     	1.5         	130         	0           	Open  	;
 P-536           	J-455           	J-738           	334.04      	8           	130         	0           	Open  	;
 P-537           	J-43            	J-597           	327.42      	4           	70          	0           	Open  	;
 P-538           	J-82            	J-205           	51.209      	12          	40          	0           	Open  	;
 P-539           	J-594           	J-435           	418.049     	6           	130         	0           	Open  	;
 P-54            	J-98            	J-99            	362.76      	6           	120         	0           	Open  	;
 P-540           	J-207           	J-54            	139.039     	6           	40          	0           	Open  	;
 P-541           	J-201           	J-165           	269         	6           	43          	0           	Open  	;
 P-542           	J-286           	J-577           	279.329     	4           	100         	0           	Open  	;
 P-543           	J-491           	J-598           	329.26      	6           	140         	0           	Open  	;
 P-544           	J-599           	J-600           	615.15      	6           	40          	0           	Open  	;
 P-545           	J-371           	J-601           	333.29      	4           	100         	0           	Open  	;
 P-546           	J-602           	J-434           	367.709     	6           	40          	0           	Open  	;
 P-547           	J-572           	J-737           	247.3       	6           	140         	0           	Open  	;
 P-548           	J-603           	J-604           	225.179     	6           	130         	0           	Open  	;
 P-549           	J-605           	J-606           	420.109     	6           	40          	0           	Open  	;
 P-55            	J-100           	J-101           	201.19      	6           	120         	0           	Open  	;
 P-550           	J-607           	J-116           	430.89      	6           	120         	0           	Open  	;
 P-551           	J-97            	J-713           	384.649     	10          	120         	0           	Open  	;
 P-552           	J-432           	J-609           	76.059      	6           	40          	0           	Open  	;
 P-553           	J-123           	J-471           	266.63      	6           	70          	0           	Open  	;
 P-554           	J-366           	J-421           	989.64      	8           	120         	0           	Open  	;
 P-555           	J-319           	J-225           	191.83      	6           	120         	0           	Open  	;
 P-556           	J-320           	J-678           	1045.199    	16          	130         	0           	Open  	;
 P-557           	J-520           	J-198           	43.79       	6           	120         	0           	Open  	;
 P-558           	J-420           	J-464           	376.76      	6           	120         	0           	Open  	;
 P-559           	J-470           	J-611           	494.049     	4           	40          	0           	Open  	;
 P-56            	J-102           	J-103           	1249.359    	6           	130         	0           	Open  	;
 P-560           	J-262           	J-161           	14.939      	6           	120         	0           	Open  	;
 P-561           	J-305           	J-506           	1540.479    	12          	120         	0           	Open  	;
 P-562           	J-732           	J-612           	479.299     	10          	70          	0           	Open  	;
 P-563           	J-323           	J-502           	1392.699    	12          	130         	0           	Open  	;
 P-564           	J-373           	J-351           	242.199     	16          	70          	0           	Open  	;
 P-565           	J-613           	J-614           	566.33      	6           	140         	0           	Open  	;
 P-566           	J-592           	J-488           	233.69      	8           	120         	0           	Open  	;
 P-567           	J-597           	J-615           	723.419     	6           	40          	0           	Open  	;
 P-568           	J-582           	J-287           	304.339     	6           	120         	0           	Open  	;
 P-569           	J-407           	J-23            	368.72      	6           	40          	0           	Open  	;
 P-57            	J-104           	J-105           	37.95       	6           	40          	0           	Open  	;
 P-570           	J-377           	J-181           	555.679     	6           	40          	0           	Open  	;
 P-571           	J-78            	J-467           	145.6       	6           	40          	0           	Open  	;
 P-572           	J-370           	J-438           	1780.79     	10          	130         	0           	Open  	;
 P-573           	J-222           	J-507           	203.19      	6           	40          	0           	Open  	;
 P-574           	J-496           	J-463           	26.54       	12          	130         	0           	Open  	;
 P-575           	J-615           	J-304           	210.029     	6           	40          	0           	Open  	;
 P-576           	J-616           	J-407           	15.34       	6           	40          	0           	Open  	;
 P-577           	J-511           	J-617           	278.07      	4           	40          	0           	Open  	;
 P-578           	J-422           	J-613           	385.22      	6           	140         	0           	Open  	;
 P-579           	J-618           	J-95            	936.63      	10          	40          	0           	Open  	;
 P-58            	J-92            	J-106           	3506.199    	6           	140         	0           	Open  	;
 P-580           	J-191           	J-473           	796.539     	6           	140         	0           	Open  	;
 P-581           	J-27            	J-52            	335.16      	8           	40          	0           	Open  	;
 P-582           	J-496           	J-497           	11.55       	8           	40          	0           	Open  	;
 P-583           	J-253           	J-229           	275.769     	6           	40          	0           	Open  	;
 P-584           	J-86            	J-170           	708.809     	6           	120         	0           	Open  	;
 P-585           	J-504           	J-578           	714.7       	6           	140         	0           	Open  	;
 P-586           	J-620           	J-592           	44.06       	2           	130         	0           	Open  	;
 P-587           	J-575           	J-607           	234.649     	6           	120         	0           	Open  	;
 P-588           	J-491           	J-621           	603.799     	6           	140         	0           	Open  	;
 P-589           	J-622           	J-78            	337.809     	4           	100         	0           	Open  	;
 P-59            	J-107           	J-73            	257.299     	18          	70          	0           	Open  	;
 P-590           	J-596           	J-332           	285.16      	12          	130         	0           	Open  	;
 P-591           	J-332           	J-623           	628.82      	12          	130         	0           	Open  	;
 P-592           	J-273           	J-255           	241.32      	6           	140         	0           	Open  	;
 P-593           	J-624           	J-241           	75.169      	6           	140         	0           	Open  	;
 P-594           	J-605           	J-514           	602.33      	6           	40          	0           	Open  	;
 P-595           	J-72            	J-41            	277.5       	6           	140         	0           	Open  	;
 P-596           	J-625           	J-618           	268.69      	10          	40          	0           	Open  	;
 P-597           	J-623           	J-626           	85.19       	12          	130         	0           	Open  	;
 P-598           	J-296           	J-271           	52.36       	8           	140         	0           	Open  	;
 P-599           	J-268           	J-627           	71.72       	6           	140         	0           	Open  	;
 P-6             	J-9             	J-727           	10730.959   	8           	140         	0           	Open  	;
 P-60            	J-56            	J-108           	764.729     	8           	140         	0           	Open  	;
 P-600           	J-53            	J-88            	302.98      	6           	40          	0           	Open  	;
 P-601           	J-304           	J-628           	233.35      	6           	40          	0           	Open  	;
 P-602           	J-206           	J-615           	81.48       	6           	40          	0           	Open  	;
 P-603           	J-473           	J-246           	299.429     	6           	140         	0           	Open  	;
 P-604           	J-430           	J-361           	225.289     	6           	130         	0           	Open  	;
 P-605           	J-39            	J-603           	126.68      	6           	130         	0           	Open  	;
 P-606           	J-629           	J-630           	218.679     	6           	120         	0           	Open  	;
 P-607           	J-552           	J-581           	273.23      	6           	40          	0           	Open  	;
 P-608           	J-142           	J-511           	1007.369    	2           	130         	0           	Open  	;
 P-609           	J-94            	J-564           	2322.87     	2           	40          	0           	Open  	;
 P-61            	J-56            	J-109           	418.579     	3           	140         	0           	Open  	;
 P-610           	J-468           	J-484           	418.809     	6           	40          	0           	Open  	;
 P-611           	J-632           	J-560           	746.84      	3           	100         	0           	Open  	;
 P-612           	J-622           	J-633           	772         	2           	130         	0           	Open  	;
 P-613           	J-593           	J-602           	445.14      	6           	130         	0           	Open  	;
 P-614           	J-73            	J-748           	5483.529    	8           	140         	0           	Open  	;
 P-615           	J-394           	J-187           	886.989     	12          	40          	0           	Open  	;
 P-616           	J-635           	J-605           	265.529     	6           	40          	0           	Open  	;
 P-617           	J-554           	J-82            	175.089     	12          	70          	0           	Open  	;
 P-618           	J-468           	J-434           	29.639      	6           	130         	0           	Open  	;
 P-619           	J-642           	J-107           	694.359     	12          	40          	0           	Open  	;
 P-62            	J-110           	J-111           	306.859     	6           	130         	0           	Open  	;
 P-620           	J-446           	J-716           	377.25      	6           	130         	0           	Open  	;
 P-621           	J-53            	J-635           	261.76      	10          	40          	0           	Open  	;
 P-622           	J-636           	J-637           	167.1       	16          	130         	0           	Open  	;
 P-623           	J-616           	J-642           	14.579      	6           	40          	0           	Open  	;
 P-624           	J-283           	J-228           	965.59      	6           	130         	0           	Open  	;
 P-625           	J-158           	J-573           	73.959      	12          	130         	0           	Open  	;
 P-626           	J-311           	J-294           	538.849     	8           	130         	0           	Open  	;
 P-627           	J-638           	J-447           	124.379     	6           	40          	0           	Open  	;
 P-628           	J-639           	J-216           	15.92       	6           	120         	0           	Open  	;
 P-629           	J-640           	J-620           	337         	4           	100         	0           	Open  	;
 P-63            	J-76            	J-312           	253.759     	6           	130         	0           	Open  	;
 P-630           	J-426           	J-641           	2360.189    	6           	120         	0           	Open  	;
 P-631           	J-586           	J-600           	692.64      	6           	40          	0           	Open  	;
 P-632           	J-589           	J-570           	17.659      	6           	40          	0           	Open  	;
 P-633           	J-310           	J-482           	238.029     	8           	40          	0           	Open  	;
 P-634           	J-396           	J-320           	1608.229    	12          	130         	0           	Open  	;
 P-635           	J-643           	J-644           	459.399     	8           	140         	0           	Open  	;
 P-636           	J-645           	J-644           	295.38      	6           	130         	0           	Open  	;
 P-637           	J-538           	J-646           	287.769     	6           	130         	0           	Open  	;
 P-638           	J-647           	J-648           	786.19      	6           	140         	0           	Open  	;
 P-639           	J-649           	J-650           	92.769      	6           	130         	0           	Open  	;
 P-64            	J-114           	J-115           	182.009     	4           	100         	0           	Open  	;
 P-640           	J-536           	J-651           	419.929     	2           	100         	0           	Open  	;
 P-641           	J-1             	J-321           	3516.09     	8           	140         	0           	Open  	;
 P-642           	J-653           	J-654           	698.45      	6           	130         	0           	Open  	;
 P-643           	J-279           	J-655           	120.769     	6           	40          	0           	Open  	;
 P-644           	J-161           	J-656           	72.86       	6           	120         	0           	Open  	;
 P-645           	J-446           	J-657           	130.139     	6           	130         	0           	Open  	;
 P-646           	J-645           	J-538           	342.019     	6           	130         	0           	Open  	;
 P-647           	J-440           	J-92            	56.9        	8           	130         	0           	Open  	;
 P-648           	J-510           	J-303           	33.31       	6           	120         	0           	Open  	;
 P-649           	J-652           	J-658           	429.059     	8           	140         	0           	Open  	;
 P-65            	J-116           	J-77            	576.94      	6           	40          	0           	Open  	;
 P-650           	J-647           	J-388           	334.359     	6           	130         	0           	Open  	;
 P-651           	J-133           	J-659           	4669.609    	6           	140         	0           	Open  	;
 P-652           	J-649           	J-660           	442.72      	6           	130         	0           	Open  	;
 P-653           	J-661           	J-594           	360.25      	6           	130         	0           	Open  	;
 P-654           	J-661           	J-662           	1050.979    	10          	130         	0           	Open  	;
 P-655           	J-650           	J-663           	394.269     	6           	140         	0           	Open  	;
 P-656           	J-664           	J-753           	3422.29     	6           	140         	0           	Open  	;
 P-657           	J-665           	J-472           	339.089     	8           	140         	0           	Open  	;
 P-658           	J-354           	J-487           	673.039     	10          	120         	0           	Open  	;
 P-659           	J-497           	J-19            	7.989       	6           	40          	0           	Open  	;
 P-66            	J-96            	J-117           	89.19       	8           	120         	0           	Open  	;
 P-660           	J-77            	J-99            	323.809     	6           	120         	0           	Open  	;
 P-661           	J-571           	J-631           	83.94       	6           	40          	0           	Open  	;
 P-662           	J-276           	J-666           	233.16      	12          	130         	0           	Open  	;
 P-663           	J-655           	J-570           	28.829      	6           	40          	0           	Open  	;
 P-664           	J-566           	J-75            	190.119     	10          	130         	0           	Open  	;
 P-665           	J-516           	J-741           	516.94      	8           	200         	0           	Open  	;
 P-666           	J-334           	J-640           	571.71      	4           	100         	0           	Open  	;
 P-667           	J-131           	J-118           	487.54      	4           	40          	0           	Open  	;
 P-668           	J-151           	J-439           	386.04      	6           	40          	0           	Open  	;
 P-669           	J-618           	J-151           	12.89       	6           	40          	0           	Open  	;
 P-67            	J-118           	J-119           	630.94      	6           	40          	0           	Open  	;
 P-670           	J-648           	J-650           	56.43       	6           	140         	0           	Open  	;
 P-671           	J-66            	J-667           	35.069      	4           	100         	0           	Open  	;
 P-672           	J-352           	J-503           	483.209     	6           	40          	0           	Open  	;
 P-673           	J-301           	J-275           	69.919      	12          	120         	0           	Open  	;
 P-674           	J-729           	J-522           	296.299     	6           	140         	0           	Open  	;
 P-675           	J-271           	J-643           	413.51      	8           	140         	0           	Open  	;
 P-676           	J-623           	J-668           	163.97      	8           	130         	0           	Open  	;
 P-677           	J-424           	J-726           	161.949     	6           	40          	0           	Open  	;
 P-678           	J-670           	J-671           	185.44      	6           	130         	0           	Open  	;
 P-679           	J-410           	J-672           	1514.689    	8           	130         	0           	Open  	;
 P-68            	J-120           	J-121           	119.959     	6           	130         	0           	Open  	;
 P-680           	J-673           	J-255           	88.26       	6           	140         	0           	Open  	;
 P-681           	J-533           	J-32            	360.709     	4           	40          	0           	Open  	;
 P-682           	J-312           	J-446           	1479.339    	6           	155         	0           	Open  	;
 P-683           	J-530           	J-556           	218.639     	6           	140         	0           	Open  	;
 P-684           	J-603           	J-643           	588.58      	6           	130         	0           	Open  	;
 P-685           	J-669           	J-674           	1323.77     	6           	40          	0           	Open  	;
 P-686           	J-631           	J-67            	525.409     	6           	40          	0           	Open  	;
 P-687           	J-462           	J-408           	483.089     	10          	130         	0           	Open  	;
 P-688           	J-20            	J-605           	388.589     	6           	40          	0           	Open  	;
 P-689           	J-318           	J-278           	24.299      	4           	40          	0           	Open  	;
 P-69            	J-122           	J-49            	968.65      	6           	130         	0           	Open  	;
 P-690           	J-78            	J-129           	473.88      	6           	40          	0           	Open  	;
 P-691           	J-450           	J-486           	27.19       	6           	120         	0           	Open  	;
 P-692           	J-509           	J-412           	271.899     	6           	40          	0           	Open  	;
 P-693           	J-675           	J-309           	407.73      	6           	40          	0           	Open  	;
 P-694           	J-31            	J-676           	61.029      	6           	120         	0           	Open  	;
 P-695           	J-460           	J-305           	300.35      	12          	40          	0           	Open  	;
 P-696           	J-676           	J-561           	17.139      	4           	100         	0           	Open  	;
 P-697           	J-309           	J-638           	66.669      	6           	40          	0           	Open  	;
 P-698           	J-413           	J-119           	286.01      	6           	40          	0           	Open  	;
 P-699           	J-630           	J-677           	429.059     	4           	100         	0           	Open  	;
 P-7             	J-11            	J-12            	260.32      	6           	40          	0           	Closed	;
 P-70            	J-123           	J-124           	346.279     	6           	70          	0           	Open  	;
 P-700           	J-461           	J-427           	495.209     	6           	130         	0           	Open  	;
 P-701           	J-553           	J-608           	677.09      	6           	130         	0           	Open  	;
 P-702           	J-252           	J-635           	607.359     	8           	40          	0           	Open  	;
 P-703           	J-679           	J-597           	345.25      	6           	120         	0           	Open  	;
 P-704           	J-635           	J-274           	600.599     	10          	40          	0           	Open  	;
 P-705           	J-563           	J-94            	232.05      	10          	40          	0           	Open  	;
 P-706           	J-152           	J-680           	1336.739    	6           	40          	0           	Open  	;
 P-707           	J-297           	J-625           	107.019     	8           	40          	0           	Open  	;
 P-708           	J-243           	J-681           	407.72      	6           	130         	0           	Open  	;
 P-709           	J-225           	J-489           	434.48      	6           	120         	0           	Open  	;
 P-71            	J-125           	J-126           	1309.979    	6           	130         	0           	Open  	;
 P-710           	J-625           	J-258           	67.419      	8           	40          	0           	Open  	;
 P-711           	J-599           	J-563           	57.02       	10          	40          	0           	Open  	;
 P-712           	J-682           	J-64            	126.62      	6           	130         	0           	Open  	;
 P-713           	J-575           	J-607           	1057.02     	6           	120         	0           	Open  	;
 P-714           	J-528           	J-751           	7087.2      	6           	140         	0           	Open  	;
 P-715           	J-684           	J-622           	62.84       	2           	130         	0           	Open  	;
 P-716           	J-574           	J-593           	219.559     	6           	130         	0           	Open  	;
 P-717           	J-47            	J-9             	324.89      	12          	130         	0           	Open  	;
 P-718           	J-683           	J-685           	87.019      	8           	140         	0           	Open  	;
 P-719           	J-460           	J-628           	327.799     	6           	130         	0           	Open  	;
 P-72            	J-127           	J-128           	26.85       	6           	120         	0           	Open  	;
 P-720           	J-134           	J-114           	197.83      	4           	100         	0           	Open  	;
 P-721           	J-669           	J-581           	469.29      	6           	40          	0           	Open  	;
 P-722           	J-557           	J-556           	1121.3      	6           	140         	0           	Open  	;
 P-723           	J-60            	J-182           	276.269     	8           	40          	0           	Open  	;
 P-724           	J-652           	J-752           	5982.589    	4           	140         	0           	Open  	;
 P-725           	J-687           	J-569           	350.679     	6           	130         	0           	Open  	;
 P-726           	J-658           	J-664           	1308.989    	8           	140         	0           	Open  	;
 P-727           	J-41            	J-647           	44.18       	6           	140         	0           	Open  	;
 P-728           	J-653           	J-375           	459.059     	10          	120         	0           	Open  	;
 P-729           	J-294           	J-150           	760.52      	8           	200         	0           	Open  	;
 P-73            	J-129           	J-130           	67.12       	6           	130         	0           	Open  	;
 P-730           	J-648           	J-649           	958.32      	6           	130         	0           	Open  	;
 P-731           	J-244           	J-629           	931.44      	6           	120         	0           	Open  	;
 P-732           	J-132           	J-509           	174.72      	6           	40          	0           	Open  	;
 P-733           	J-412           	J-571           	707.14      	6           	40          	0           	Open  	;
 P-734           	J-675           	J-343           	512.4       	6           	70          	0           	Open  	;
 P-735           	J-688           	J-689           	457.429     	6           	40          	0           	Open  	;
 P-736           	J-689           	J-618           	323.339     	6           	40          	0           	Open  	;
 P-737           	J-62            	J-636           	293.589     	16          	120         	0           	Open  	;
 P-738           	J-688           	J-251           	234.05      	10          	40          	0           	Open  	;
 P-739           	J-225           	J-532           	240.199     	4           	40          	0           	Open  	;
 P-74            	J-131           	J-132           	91.239      	4           	40          	0           	Open  	;
 P-740           	J-61            	J-27            	465.01      	8           	40          	0           	Open  	;
 P-741           	J-291           	J-690           	848.049     	6           	40          	0           	Open  	;
 P-742           	J-689           	J-691           	400.299     	4           	40          	0           	Open  	;
 P-743           	J-514           	J-688           	140.13      	10          	40          	0           	Open  	;
 P-744           	J-658           	J-692           	4157.459    	4           	140         	0           	Open  	;
 P-745           	J-396           	J-44            	1320.569    	12          	130         	0           	Open  	;
 P-746           	J-412           	J-61            	8.39        	8           	40          	0           	Open  	;
 P-747           	J-693           	J-573           	951.33      	8           	70          	0           	Open  	;
 P-748           	J-105           	J-690           	269.19      	6           	40          	0           	Open  	;
 P-749           	J-224           	J-318           	171.5       	4           	100         	0           	Open  	;
 P-75            	J-133           	J-134           	425.14      	8           	120         	0           	Open  	;
 P-750           	J-362           	J-548           	204.919     	4           	40          	0           	Open  	;
 P-751           	J-390           	J-365           	913.14      	10          	120         	0           	Open  	;
 P-752           	J-64            	J-29            	291.42      	6           	130         	0           	Open  	;
 P-753           	J-282           	J-734           	218.179     	6           	40          	0           	Open  	;
 P-754           	J-227           	J-653           	188.75      	10          	120         	0           	Open  	;
 P-755           	J-687           	J-568           	457.07      	6           	130         	0           	Open  	;
 P-756           	J-660           	J-694           	336.6       	6           	130         	0           	Open  	;
 P-757           	J-665           	J-687           	320.579     	6           	130         	0           	Open  	;
 P-758           	J-670           	J-655           	279.149     	6           	130         	0           	Open  	;
 P-759           	J-664           	J-695           	4134.899    	8           	140         	0           	Open  	;
 P-76            	J-135           	J-136           	133.029     	2           	100         	0           	Open  	;
 P-760           	J-549           	J-277           	305.779     	6           	40          	0           	Open  	;
 P-761           	J-32            	J-696           	114.339     	2           	130         	0           	Open  	;
 P-762           	J-629           	J-299           	452.82      	6           	120         	0           	Open  	;
 P-763           	J-156           	J-315           	262.2       	6           	130         	0           	Open  	;
 P-764           	J-697           	J-199           	595.979     	6           	130         	0           	Open  	;
 P-765           	J-67            	J-87            	504.959     	6           	40          	0           	Open  	;
 P-766           	J-132           	J-670           	317.589     	6           	130         	0           	Open  	;
 P-767           	J-666           	J-374           	1348.939    	10          	130         	0           	Open  	;
 P-768           	J-678           	J-524           	189.8       	16          	130         	0           	Open  	;
 P-769           	J-445           	J-676           	315.48      	4           	100         	0           	Open  	;
 P-77            	J-137           	J-138           	580.239     	6           	130         	0           	Open  	;
 P-770           	J-54            	J-252           	251.429     	8           	40          	0           	Open  	;
 P-771           	J-451           	J-224           	431.6       	4           	100         	0           	Open  	;
 P-772           	J-526           	J-226           	2056.969    	16          	130         	0           	Open  	;
 P-773           	J-345           	J-479           	707.429     	6           	120         	0           	Open  	;
 P-774           	J-597           	J-238           	281.95      	6           	120         	0           	Open  	;
 P-775           	J-300           	J-661           	219.32      	6           	130         	0           	Open  	;
 P-776           	J-479           	J-348           	171.429     	6           	120         	0           	Open  	;
 P-777           	J-512           	J-105           	279.859     	6           	40          	0           	Open  	;
 P-778           	J-630           	J-397           	168.399     	6           	120         	0           	Open  	;
 P-779           	J-672           	J-357           	931.28      	8           	130         	0           	Open  	;
 P-78            	J-139           	J-140           	401.42      	4           	100         	0           	Open  	;
 P-780           	J-698           	J-699           	876.969     	8           	130         	0           	Open  	;
 P-781           	J-698           	J-164           	153.449     	16          	130         	0           	Open  	;
 P-782           	J-700           	J-110           	496.25      	6           	130         	0           	Open  	;
 P-783           	J-111           	J-645           	250.759     	6           	130         	0           	Open  	;
 P-784           	J-234           	J-410           	476.609     	8           	130         	0           	Open  	;
 P-785           	J-321           	J-634           	9531.669    	8           	140         	0           	Open  	;
 P-786           	J-701           	J-702           	93.379      	6           	70          	0           	Open  	;
 P-787           	J-302           	J-46            	1837.3      	12          	130         	0           	Open  	;
 P-788           	J-672           	J-234           	356.839     	8           	130         	0           	Open  	;
 P-789           	J-645           	J-703           	137.479     	6           	130         	0           	Open  	;
 P-79            	J-141           	J-142           	1069.31     	2           	130         	0           	Open  	;
 P-790           	J-704           	J-705           	213.639     	6           	40          	0           	Open  	;
 P-791           	J-291           	J-500           	503.269     	4           	40          	0           	Open  	;
 P-792           	J-524           	J-698           	1553.28     	16          	130         	0           	Open  	;
 P-793           	J-706           	J-386           	759.599     	6           	70          	0           	Open  	;
 P-794           	J-290           	J-57            	325.709     	8           	40          	0           	Open  	;
 P-795           	J-211           	J-288           	367.559     	10          	70          	0           	Open  	;
 P-796           	J-527           	J-546           	575.59      	6           	40          	0           	Open  	;
 P-797           	J-706           	J-211           	343.6       	10          	70          	0           	Open  	;
 P-798           	J-634           	J-652           	6733.62     	8           	140         	0           	Open  	;
 P-799           	J-704           	J-707           	256.369     	6           	130         	0           	Open  	;
 P-8             	J-13            	J-14            	362.309     	8           	120         	0           	Open  	;
 P-80            	J-143           	J-96            	1794.3      	10          	120         	0           	Open  	;
 P-800           	J-638           	J-471           	859.89      	6           	70          	0           	Open  	;
 P-801           	J-580           	J-708           	480.26      	10          	70          	0           	Open  	;
 P-802           	J-202           	J-693           	299.19      	8           	70          	0           	Open  	;
 P-803           	J-708           	J-612           	1198.66     	10          	70          	0           	Open  	;
 P-804           	J-500           	J-47            	18.219      	4           	40          	0           	Open  	;
 P-805           	J-185           	J-701           	1266.39     	6           	70          	0           	Open  	;
 P-806           	J-24            	J-704           	143.3       	6           	40          	0           	Open  	;
 P-807           	J-58            	J-428           	98.209      	8           	40          	0           	Open  	;
 P-808           	J-395           	J-709           	268.23      	10          	40          	0           	Open  	;
 P-809           	J-709           	J-708           	7.26        	10          	40          	0           	Open  	;
 P-81            	J-144           	J-145           	186.089     	6           	130         	0           	Open  	;
 P-810           	J-705           	J-609           	930.76      	6           	40          	0           	Open  	;
 P-811           	J-709           	J-706           	483.309     	10          	70          	0           	Open  	;
 P-812           	J-701           	J-693           	114.47      	6           	70          	0           	Open  	;
 P-813           	J-710           	J-8             	203.889     	2           	130         	0           	Open  	;
 P-814           	J-678           	J-711           	710.45      	6           	130         	0           	Open  	;
 P-815           	J-542           	J-1             	2172.86     	12          	130         	0           	Open  	;
 P-816           	J-333           	J-527           	1492.91     	8           	130         	0           	Open  	;
 P-817           	J-557           	J-176           	434.809     	6           	140         	0           	Open  	;
 P-818           	J-712           	J-507           	869.08      	6           	120         	0           	Open  	;
 P-819           	J-644           	J-744           	643.159     	8           	140         	0           	Open  	;
 P-82            	J-22            	J-146           	39.819      	6           	130         	0           	Open  	;
 P-820           	J-743           	J-544           	59.189      	6           	140         	0           	Open  	;
 P-821           	J-399           	J-443           	335.359     	8           	140         	0           	Open  	;
 P-822           	J-391           	J-555           	863.419     	10          	130         	0           	Open  	;
 P-823           	J-740           	J-555           	229.119     	6           	130         	0           	Open  	;
 P-824           	J-192           	J-679           	323.16      	6           	120         	0           	Open  	;
 P-825           	J-493           	J-536           	188.059     	2           	100         	0           	Open  	;
 P-826           	J-559           	J-300           	298.119     	12          	120         	0           	Open  	;
 P-827           	J-16            	J-718           	388.359     	2           	70          	0           	Open  	;
 P-828           	J-666           	J-719           	4374.6      	6           	130         	0           	Open  	;
 P-829           	J-15            	J-720           	384.23      	2           	70          	0           	Open  	;
 P-83            	J-130           	J-147           	254.94      	6           	130         	0           	Open  	;
 P-830           	J-317           	J-37            	463.089     	8           	140         	0           	Open  	;
 P-831           	J-424           	J-206           	526.57      	6           	40          	0           	Open  	;
 P-832           	J-739           	J-554           	299.39      	10          	70          	0           	Open  	;
 P-833           	J-385           	J-712           	18.04       	6           	120         	0           	Open  	;
 P-834           	J-713           	J-429           	436.899     	10          	120         	0           	Open  	;
 P-835           	J-721           	J-723           	28.37       	10          	120         	0           	Open  	;
 P-836           	J-739           	J-726           	14.05       	10          	120         	0           	Open  	;
 P-837           	J-33            	J-721           	401.959     	6           	40          	0           	Open  	;
 P-838           	J-722           	J-193           	27.79       	6           	40          	0           	Open  	;
 P-839           	J-723           	J-713           	434.709     	10          	120         	0           	Open  	;
 P-84            	J-101           	J-127           	118.669     	6           	120         	0           	Open  	;
 P-840           	J-723           	J-722           	20.209      	10          	120         	0           	Open  	;
 P-841           	J-726           	J-721           	189.029     	10          	120         	0           	Open  	;
 P-842           	J-669           	J-159           	140.979     	6           	40          	0           	Open  	;
 P-843           	J-608           	J-461           	342.32      	6           	130         	0           	Open  	;
 P-844           	J-619           	J-567           	279.369     	6           	40          	0           	Open  	;
 P-845           	J-724           	J-733           	571.609     	8           	130         	0           	Open  	;
 P-846           	J-728           	J-492           	34.439      	6           	120         	0           	Open  	;
 P-847           	J-728           	J-452           	33          	4           	100         	0           	Open  	;
 P-848           	J-280           	J-99            	760.58      	6           	120         	0           	Open  	;
 P-849           	J-730           	J-112           	11974.86    	8           	140         	0           	Open  	;
 P-85            	J-148           	J-149           	513.88      	4           	100         	0           	Open  	;
 P-850           	J-729           	J-730           	241.059     	8           	140         	0           	Open  	;
 P-851           	J-731           	O-Pump-2        	1.19        	12          	70          	0           	Open  	;
 P-852           	O-Pump-1        	J-731           	1.259       	12          	70          	0           	Open  	;
 P-853           	J-251           	J-483           	325.929     	10          	40          	0           	Open  	;
 P-854           	J-735           	I-Pump-1        	1.169       	12          	70          	0           	Open  	;
 P-855           	J-610           	J-726           	435.51      	6           	40          	0           	Open  	;
 P-856           	R1              	J-735           	54.95       	18          	70          	0           	Open  	;
 P-857           	J-725           	J-221           	421.94      	6           	140         	0           	Open  	;
 P-858           	J-734           	J-736           	436.739     	6           	40          	0           	Open  	;
 P-859           	J-736           	J-675           	191.009     	6           	40          	0           	Open  	;
 P-86            	J-150           	J-108           	439.63      	8           	140         	0           	Open  	;
 P-860           	J-733           	J-455           	1185.18     	8           	130         	0           	Open  	;
 P-861           	J-733           	J-167           	739.549     	12          	130         	0           	Open  	;
 P-862           	J-757           	I-Pump-3        	2.519       	10          	70          	0           	Open  	;
 P-863           	J-374           	J-566           	394.6       	10          	130         	0           	Open  	;
 P-864           	J-113           	J-308           	475.779     	6           	140         	0           	Open  	;
 P-865           	J-727           	J-747           	9582.9      	8           	140         	0           	Open  	;
 P-866           	J-555           	J-516           	417.67      	8           	200         	0           	Open  	;
 P-867           	J-483           	J-599           	364.39      	10          	40          	0           	Open  	;
 P-868           	J-484           	J-717           	315.119     	6           	40          	0           	Open  	;
 P-869           	J-50            	J-663           	1250.28     	6           	140         	0           	Open  	;
 P-87            	J-151           	J-152           	938.119     	6           	40          	0           	Open  	;
 P-870           	J-740           	J-742           	1073.04     	6           	130         	0           	Open  	;
 P-871           	J-716           	J-76            	494.649     	6           	130         	0           	Open  	;
 P-872           	J-741           	J-715           	586.07      	10          	130         	0           	Open  	;
 P-873           	J-741           	J-742           	290.39      	6           	130         	0           	Open  	;
 P-874           	J-717           	J-631           	322.75      	6           	40          	0           	Open  	;
 P-875           	J-760           	J-42            	898.539     	6           	130         	0           	Open  	;
 P-876           	J-745           	J-302           	289.63      	12          	130         	0           	Open  	;
 P-877           	J-743           	J-745           	18.54       	12          	130         	0           	Open  	;
 P-878           	J-744           	J-477           	158.47      	8           	140         	0           	Open  	;
 P-879           	J-477           	J-485           	90.12       	8           	140         	0           	Open  	;
 P-88            	J-146           	J-29            	557.83      	6           	130         	0           	Open  	;
 P-880           	J-502           	J-476           	496.2       	8           	130         	0           	Open  	;
 P-881           	J-476           	J-456           	295.489     	8           	130         	0           	Open  	;
 P-882           	J-456           	J-585           	687.359     	8           	130         	0           	Open  	;
 P-883           	J-585           	J-475           	194.679     	8           	130         	0           	Open  	;
 P-884           	J-475           	J-714           	215.169     	8           	130         	0           	Open  	;
 P-885           	J-665           	J-443           	615.95      	8           	140         	0           	Open  	;
 P-886           	J-747           	J-10            	10986.62    	8           	140         	0           	Open  	;
 P-887           	J-745           	J-746           	74.68       	12          	130         	0           	Open  	;
 P-888           	J-748           	J-750           	9243.889    	8           	140         	0           	Open  	;
 P-889           	J-540           	J-749           	157.229     	6           	140         	0           	Open  	;
 P-89            	J-153           	J-619           	473.739     	10          	130         	0           	Open  	;
 P-890           	J-749           	J-544           	21.27       	6           	140         	0           	Open  	;
 P-891           	J-750           	J-683           	8125.39     	8           	140         	0           	Open  	;
 P-892           	J-751           	J-683           	11792.559   	6           	140         	0           	Open  	;
 P-893           	J-752           	J-686           	4978.99     	4           	140         	0           	Open  	;
 P-894           	J-753           	J-5             	9310.36     	6           	140         	0           	Open  	;
 P-895           	J-759           	J-754           	2.759       	10          	70          	0           	Open  	;
 P-896           	T-3             	J-755           	41.259      	10          	70          	0           	Open  	;
 P-897           	O-Pump-3        	J-756           	2.48        	10          	70          	0           	Open  	;
 P-898           	J-757           	J-758           	3.269       	10          	70          	0           	Open  	;
 P-899           	J-755           	J-758           	2.579       	10          	70          	0           	Open  	;
 P-9             	J-15            	J-16            	331.26      	4           	70          	0           	Open  	;
 P-90            	J-155           	J-125           	760.4       	6           	130         	0           	Open  	;
 P-900           	J-756           	J-759           	3.2         	10          	70          	0           	Open  	;
 P-901           	J-755           	J-754           	5.26        	10          	70          	0           	CV    	;
 P-902           	J-759           	O-AV-1          	2.5         	10          	70          	0           	Open  	;
 P-903           	J-738           	J-596           	198.889     	12          	130         	0           	Open  	;
 P-904           	J-737           	J-583           	558.609     	6           	140         	0           	Open  	;
 P-905           	J-373           	J-619a          	15.8        	18          	70          	0           	Open  	;
 P-906           	J-761           	J-619a          	9.22        	18          	70          	0           	CV    	;
 P-907           	O-AV-2          	J-761           	2.23        	18          	70          	0           	Open  	;
 P-908           	J-619           	J-154           	1379.989    	10          	130         	0           	Open  	;
 P-909           	I-Pump-2        	J-735           	1.299       	12          	70          	0           	Open  	;
 P-91            	J-59            	J-52            	353.47      	12          	40          	0           	Open  	;
 P-910           	I-AV-1          	J-758           	2.619       	10          	70          	0           	Open  	;
 P-911           	J-619a          	I-AV-2          	2.25        	18          	70          	0           	Open  	;
 P-912           	J-572           	J-621           	575.94      	6           	140         	0           	Closed	;
 P-92            	J-156           	J-157           	372.839     	6           	130         	0           	Open  	;
 P-93            	J-9             	J-158           	1719.109    	12          	130         	0           	Open  	;
 P-94            	J-159           	J-610           	608.02      	6           	40          	0           	Open  	;
 P-95            	J-160           	J-161           	10.18       	6           	120         	0           	Open  	;
 P-96            	J-101           	J-120           	359.32      	6           	40          	0           	Open  	;
 P-97            	J-160           	J-162           	126.589     	2           	130         	0           	Open  	;
 P-98            	J-147           	J-121           	27.389      	6           	130         	0           	Open  	;
 P-99            	J-127           	J-163           	65.22       	6           	120         	0           	Open  	;

[PUMPS]
;ID              	Node1           	Node2           	Parameters
 ~@Pump-1        	I-Pump-1        	O-Pump-1        	HEAD P4	SPEED 1	;
 ~@Pump-2        	I-Pump-2        	O-Pump-2        	HEAD P2	SPEED 0.93	;
 ~@Pump-3        	I-Pump-3        	O-Pump-3        	HEAD P3	SPEED 0.9	;

[VALVES]
;ID              	Node1           	Node2           	Diameter    	Type	Setting     	MinorLoss   
 ~@AV-1          	I-AV-1          	O-AV-1          	1000        	TCV 	4.031018E+11	0           	;
 ~@AV-2          	I-AV-2          	O-AV-2          	1000        	TCV 	9.89391E+07 	0           	;

[TAGS]

[DEMANDS]
;Junction        	Demand      	Pattern         	Category

[STATUS]
;ID              	Status/Setting
 ~@Pump-2        	0.93
 ~@Pump-2        	Closed
 ~@Pump-3        	0.9

[PATTERNS]
;ID              	Multipliers
;
 11              	1           	0.439       	1.75        	1.7         	1.779       	2.339       
 11              	1.97        	1.269       	3.009       	1.529       	2.049       
;
 1               	1           	4.8         	4.69        	3.829       	2.99        	4.98        
 1               	2.67        	6.5         	3.339       	5.579       	4.36        
;
 2               	1           	3.599       	1.169       	0.959       	0.99        	1.23        
 2               	1.1         	2.799       	0.819       	1.389       	1.08        
;
 3               	1           
;
 ENRG1           	1           	1           	1           	1           	1           	1           
 ENRG1           	1           	1           	1           	1           
; Reservoir grade change pattern data
 Res1            	0.996       	0.995       	0.998       	0.998       	0.995       	0.999       
 Res1            	0.996       	0.995       	0.995       	0.995       
;
 Res2            	0.998       	1           	0.996       	0.996       	1           	0.996       
 Res2            	0.999       	1.001       	1.004       	1.003       
;
 Res3            	1           	1           	1           	1           	1           	0.998       
 Res3            	1           	1           	1           	1           
;
 Res4            	0.99        	0.991       	0.989       	0.988       	0.991       	0.987       
 Res4            	0.99        	0.991       	0.992       	0.991       

[CURVES]
;ID              	X-Value     	Y-Value
;PUMP: -------------------------------------------------------------------------------
 P2              	0           	472         
 P2              	500         	436         
 P2              	1000        	400         
 P2              	1500        	368         
 P2              	2000        	352         
 P2              	2400        	344         
 P2              	2500        	336         
 P2              	2750        	320         
 P2              	3000        	296         
 P2              	3250        	264         
 P2              	3500        	232         
 P2              	3750        	192         
;PUMP: 
 P3              	0           	118         
 P3              	100         	116         
 P3              	200         	113         
 P3              	300         	110         
 P3              	400         	104         
 P3              	500         	98          
 P3              	600         	88          
 P3              	700         	74          
 P3              	775         	56          
;PUMP: 
 P4              	1850        	306.923     
 P4              	2020        	293.076     
 P4              	2250        	283.846     
 P4              	2450        	274.846     
 P4              	2500        	270.923     
 P4              	2550        	268.615     
 P4              	2600        	268.153     
 P4              	2650        	266.769     
 P4              	3000        	259.153     
 P4              	3050        	257.538     
 P4              	3100        	256.615     
;PUMP: 
 PE2             	0           	0           
 PE2             	500         	0           
 PE2             	1000        	0           
 PE2             	1500        	0           
 PE2             	2000        	0           
 PE2             	2400        	0           
 PE2             	2500        	0           
 PE2             	2750        	0           
 PE2             	3000        	0           
 PE2             	3250        	0           
 PE2             	3500        	0           
 PE2             	3750        	0           
;PUMP: 
 PE3             	0           	0           
 PE3             	100         	33          
 PE3             	200         	53          
 PE3             	300         	66          
 PE3             	400         	73          
 PE3             	500         	78          
 PE3             	600         	78          
 PE3             	700         	71          
 PE3             	775         	58          
;PUMP: 
 PE4             	1850        	0           
 PE4             	2020        	0           
 PE4             	2250        	0           
 PE4             	2450        	0           
 PE4             	2500        	0           
 PE4             	2550        	0           
 PE4             	2600        	0           
 PE4             	2650        	0           
 PE4             	3000        	0           
 PE4             	3050        	0           
 PE4             	3100        	0           

[CONTROLS]

[RULES]

[ENERGY]
 Global Efficiency  	75
 Global Price       	0
 Demand Charge      	0

[EMITTERS]
;Junction        	Coefficient

[QUALITY]
;Node            	InitQual
 R1              	0
 T-1             	0
 T-2             	0
 T-3             	0

[SOURCES]
;Node            	Type        	Quality     	Pattern

[REACTIONS]
;Type     	Pipe/Tank       	Coefficient


[REACTIONS]
 Order Bulk            	0
 Order Tank            	0
 Order Wall            	0
 Global Bulk           	0
 Global Wall           	0
 Limiting Potential    	0
 Roughness Correlation 	0

[MIXING]
;Tank            	Model

[TIMES]
 Duration           	0
 Hydraulic Timestep 	1:00
 Quality Timestep   	0:05
 Pattern Timestep   	1:00
 Pattern Start      	0:00
 Report Timestep    	1:00
 Report Start       	0:00
 Start ClockTime    	12 am
 Statistic          	None

[REPORT]
 Status             	Full
 Summary            	No
 Page               	0

[OPTIONS]
 Units              	GPM
 Headloss           	H-W
 Specific Gravity   	1
 Viscosity          	1
 Trials             	60
 Accuracy           	0.001
 CHECKFREQ          	2
 MAXCHECK           	10
 DAMPLIMIT          	0
 Unbalanced         	Continue 10
 Pattern            	1
 Demand Multiplier  	1.0
 Emitter Exponent   	0.5
 Quality            	AGE mg/L
 Diffusivity        	0.05
 Tolerance          	0.01

[COORDINATES]
;Node            	X-Coord         	Y-Coord
 I-AV-1          	3963525.95      	3697967.00      
 O-AV-2          	3967974.42      	3699307.00      
 J-1             	3958361.90      	3704749.00      
 J-10            	3994961.56      	3688361.00      
 J-100           	3964974.95      	3703322.00      
 J-101           	3965000.79      	3703123.00      
 J-102           	3960833.08      	3694663.00      
 J-103           	3959768.81      	3694934.00      
 J-104           	3971857.25      	3705730.00      
 J-105           	3971888.42      	3705709.00      
 J-106           	3956933.14      	3700119.00      
 J-107           	3967765.24      	3699522.00      
 J-108           	3960003.27      	3693827.00      
 J-109           	3960385.09      	3693886.00      
 J-11            	3967902.16      	3704124.00      
 J-110           	3962315.10      	3694632.00      
 J-111           	3962621.82      	3694623.00      
 J-112           	3980202.65      	3716238.00      
 J-113           	3964025.61      	3695756.00      
 J-114           	3958704.06      	3695874.00      
 J-115           	3958686.15      	3695693.00      
 J-116           	3965476.29      	3704662.00      
 J-117           	3962529.57      	3697424.00      
 J-118           	3965488.34      	3702162.00      
 J-119           	3965532.60      	3701574.00      
 J-12            	3968043.58      	3703906.00      
 J-120           	3965351.28      	3703166.00      
 J-121           	3965347.91      	3703286.00      
 J-122           	3961831.61      	3695251.00      
 J-123           	3971779.01      	3704805.00      
 J-124           	3972056.90      	3704598.00      
 J-125           	3958325.99      	3696899.00      
 J-126           	3959632.89      	3696810.00      
 J-127           	3964993.29      	3703012.00      
 J-128           	3964979.20      	3702989.00      
 J-129           	3965315.39      	3703614.00      
 J-13            	3961691.84      	3697636.00      
 J-130           	3965355.68      	3703566.00      
 J-131           	3965516.72      	3702649.00      
 J-132           	3965594.18      	3702600.00      
 J-133           	3958756.76      	3696495.00      
 J-134           	3958721.79      	3696072.00      
 J-135           	3964366.59      	3705071.00      
 J-136           	3964407.66      	3705198.00      
 J-137           	3957948.68      	3698346.00      
 J-138           	3958512.89      	3698482.00      
 J-139           	3962293.95      	3701298.00      
 J-14            	3961403.30      	3697417.00      
 J-140           	3962266.88      	3700978.00      
 J-141           	3964746.80      	3705088.00      
 J-142           	3965587.61      	3704652.00      
 J-143           	3961165.24      	3696351.00      
 J-144           	3962727.36      	3693326.00      
 J-145           	3962910.83      	3693357.00      
 J-146           	3960676.62      	3698760.00      
 J-147           	3965349.34      	3703313.00      
 J-148           	3962454.25      	3701349.00      
 J-149           	3962592.15      	3700854.00      
 J-15            	3962454.78      	3696822.00      
 J-150           	3959937.13      	3693393.00      
 J-151           	3968492.61      	3703094.00      
 J-152           	3969265.02      	3702565.00      
 J-153           	3956885.78      	3690740.00      
 J-154           	3958720.18      	3690800.00      
 J-155           	3958707.40      	3697201.00      
 J-156           	3971186.69      	3703199.00      
 J-157           	3971204.98      	3703499.00      
 J-158           	3971886.86      	3703185.00      
 J-159           	3964155.14      	3698836.00      
 J-16            	3962175.40      	3696644.00      
 J-160           	3964827.54      	3705341.00      
 J-161           	3964834.55      	3705343.00      
 J-162           	3964789.73      	3705220.00      
 J-163           	3965051.09      	3702982.00      
 J-164           	3962202.19      	3704396.00      
 J-165           	3967189.13      	3702065.00      
 J-166           	3966266.63      	3707642.00      
 J-167           	3966655.05      	3707825.00      
 J-168           	3966418.74      	3708601.00      
 J-169           	3966479.23      	3708375.00      
 J-17            	3964918.90      	3690587.00      
 J-170           	3966986.36      	3710878.00      
 J-171           	3966944.27      	3710375.00      
 J-172           	3964083.36      	3697216.00      
 J-173           	3964380.14      	3697216.00      
 J-174           	3967143.23      	3704497.00      
 J-175           	3967065.39      	3704443.00      
 J-176           	3967016.47      	3710371.00      
 J-177           	3967048.95      	3710848.00      
 J-178           	3961880.33      	3693944.00      
 J-179           	3962675.40      	3694087.00      
 J-18            	3966105.70      	3688605.00      
 J-180           	3965452.55      	3701879.00      
 J-181           	3966147.00      	3701292.00      
 J-182           	3966195.01      	3701354.00      
 J-183           	3968113.91      	3704230.00      
 J-184           	3968261.29      	3704308.00      
 J-185           	3971426.15      	3703949.00      
 J-186           	3971539.76      	3702852.00      
 J-187           	3971089.75      	3702258.00      
 J-188           	3967726.73      	3701036.00      
 J-189           	3967735.71      	3701041.00      
 J-19            	3967326.91      	3701315.00      
 J-190           	3963325.60      	3696189.00      
 J-191           	3963587.86      	3696537.00      
 J-192           	3962825.74      	3697804.00      
 J-193           	3963186.48      	3698079.00      
 J-194           	3963332.08      	3696148.00      
 J-195           	3966111.77      	3708274.00      
 J-196           	3966543.68      	3701090.00      
 J-197           	3966548.51      	3701097.00      
 J-198           	3966273.79      	3707618.00      
 J-199           	3958596.31      	3698142.00      
 J-2             	3956329.59      	3702715.00      
 J-20            	3967439.26      	3701484.00      
 J-200           	3964243.68      	3705367.00      
 J-201           	3967042.87      	3701839.00      
 J-202           	3972596.85      	3704220.00      
 J-203           	3971303.49      	3701423.00      
 J-204           	3971713.67      	3700916.00      
 J-205           	3963607.08      	3697740.00      
 J-206           	3963503.01      	3697660.00      
 J-207           	3966811.47      	3701488.00      
 J-208           	3965483.35      	3703567.00      
 J-209           	3963971.37      	3700046.00      
 J-21            	3960684.87      	3699172.00      
 J-210           	3964616.52      	3700304.00      
 J-211           	3970823.29      	3700737.00      
 J-212           	3971143.88      	3701182.00      
 J-213           	3969732.09      	3706360.00      
 J-214           	3969608.86      	3706260.00      
 J-215           	3966932.54      	3705623.00      
 J-216           	3966547.39      	3705386.00      
 J-217           	3960460.40      	3698774.00      
 J-218           	3960580.03      	3698626.00      
 J-219           	3965273.85      	3703565.00      
 J-22            	3960714.48      	3698748.00      
 J-220           	3958836.95      	3691396.00      
 J-221           	3964070.21      	3696327.00      
 J-222           	3962406.98      	3699684.00      
 J-223           	3965677.66      	3700034.00      
 J-224           	3968401.59      	3704513.00      
 J-225           	3968390.75      	3704566.00      
 J-226           	3961057.65      	3701590.00      
 J-227           	3961108.69      	3699934.00      
 J-228           	3971086.00      	3703234.00      
 J-229           	3966990.95      	3700806.00      
 J-23            	3967851.48      	3700480.00      
 J-230           	3960327.25      	3698687.00      
 J-231           	3968094.23      	3704216.00      
 J-232           	3959613.38      	3697133.00      
 J-233           	3964737.99      	3704986.00      
 J-234           	3960061.16      	3691735.00      
 J-235           	3960197.46      	3691841.00      
 J-236           	3966707.72      	3707686.00      
 J-237           	3963058.21      	3696893.00      
 J-238           	3963017.91      	3696886.00      
 J-239           	3966888.86      	3703590.00      
 J-24            	3968049.21      	3700771.00      
 J-240           	3966903.46      	3703597.00      
 J-241           	3963373.66      	3695910.00      
 J-242           	3963179.91      	3696105.00      
 J-243           	3966248.63      	3704068.00      
 J-244           	3966693.01      	3704255.00      
 J-245           	3963313.97      	3695566.00      
 J-246           	3964365.83      	3696379.00      
 J-247           	3967184.27      	3704426.00      
 J-248           	3963922.40      	3696886.00      
 J-249           	3964376.62      	3696966.00      
 J-25            	3965224.74      	3700689.00      
 J-250           	3970893.67      	3700093.00      
 J-251           	3968262.52      	3702312.00      
 J-252           	3967092.16      	3701454.00      
 J-253           	3966761.82      	3700959.00      
 J-254           	3963249.47      	3694709.00      
 J-255           	3964382.71      	3697502.00      
 J-256           	3967878.60      	3703100.00      
 J-257           	3968089.85      	3702961.00      
 J-258           	3968299.37      	3703291.00      
 J-259           	3968434.92      	3703498.00      
 J-26            	3965432.66      	3700387.00      
 J-260           	3960344.07      	3699346.00      
 J-261           	3959929.67      	3699508.00      
 J-262           	3964849.01      	3705339.00      
 J-263           	3964807.04      	3705213.00      
 J-264           	3960675.59      	3699377.00      
 J-265           	3970602.75      	3700902.00      
 J-266           	3971156.84      	3700604.00      
 J-267           	3967849.76      	3704199.00      
 J-268           	3964366.43      	3696093.00      
 J-269           	3966096.89      	3709178.00      
 J-27            	3966442.96      	3702285.00      
 J-270           	3963427.27      	3695556.00      
 J-271           	3963283.11      	3695531.00      
 J-272           	3963139.09      	3696368.00      
 J-273           	3964143.30      	3697519.00      
 J-274           	3967761.55      	3702459.00      
 J-275           	3956950.68      	3692893.00      
 J-276           	3956881.80      	3692839.00      
 J-277           	3967507.11      	3704719.00      
 J-278           	3968208.03      	3704483.00      
 J-279           	3965542.04      	3703182.00      
 J-28            	3966470.18      	3702405.00      
 J-280           	3964977.03      	3703355.00      
 J-281           	3967536.40      	3702603.00      
 J-282           	3970021.81      	3704224.00      
 J-283           	3970534.72      	3703792.00      
 J-284           	3967633.87      	3702745.00      
 J-285           	3964336.67      	3705212.00      
 J-286           	3959855.17      	3695863.00      
 J-287           	3960179.99      	3696059.00      
 J-288           	3971156.21      	3700596.00      
 J-289           	3960476.24      	3698867.00      
 J-29            	3960557.39      	3698240.00      
 J-290           	3972217.77      	3705030.00      
 J-291           	3972308.51      	3704950.00      
 J-292           	3966503.03      	3706094.00      
 J-293           	3966372.10      	3706208.00      
 J-294           	3959812.86      	3692642.00      
 J-295           	3960028.47      	3692567.00      
 J-296           	3963272.43      	3695582.00      
 J-297           	3968206.47      	3703144.00      
 J-298           	3967145.55      	3705281.00      
 J-299           	3967227.80      	3705155.00      
 J-3             	3966474.79      	3706666.00      
 J-30            	3960672.70      	3698155.00      
 J-300           	3957527.79      	3693506.00      
 J-301           	3957005.80      	3692936.00      
 J-302           	3972464.05      	3706560.00      
 J-303           	3959554.71      	3697468.00      
 J-304           	3963648.54      	3697408.00      
 J-305           	3964253.68      	3697713.00      
 J-306           	3966768.16      	3704246.00      
 J-307           	3963589.04      	3695635.00      
 J-308           	3964329.64      	3695615.00      
 J-309           	3970913.09      	3705105.00      
 J-31            	3969024.13      	3705001.00      
 J-310           	3967929.58      	3703173.00      
 J-311           	3959597.15      	3692163.00      
 J-312           	3959348.57      	3692370.00      
 J-313           	3964221.53      	3705301.00      
 J-314           	3968148.96      	3703380.00      
 J-315           	3971433.82      	3703112.00      
 J-316           	3971563.26      	3703259.00      
 J-317           	3960851.92      	3696150.00      
 J-318           	3968232.05      	3704487.00      
 J-319           	3968201.22      	3704536.00      
 J-32            	3968611.60      	3705224.00      
 J-320           	3960573.94      	3705934.00      
 J-321           	3954879.93      	3704941.00      
 J-322           	3960685.61      	3697918.00      
 J-323           	3960933.56      	3697518.00      
 J-324           	3966509.33      	3699725.00      
 J-325           	3966683.03      	3699345.00      
 J-326           	3958486.06      	3698591.00      
 J-327           	3965545.40      	3704873.00      
 J-328           	3960192.54      	3710836.00      
 J-329           	3962087.66      	3713161.00      
 J-33            	3962937.76      	3698418.00      
 J-330           	3962190.45      	3699633.00      
 J-331           	3961531.83      	3699412.00      
 J-332           	3969210.78      	3708336.00      
 J-333           	3971537.27      	3706907.00      
 J-334           	3959133.83      	3696110.00      
 J-335           	3962388.82      	3702061.00      
 J-336           	3962428.29      	3701817.00      
 J-337           	3962143.01      	3693721.00      
 J-338           	3962437.18      	3693498.00      
 J-339           	3959342.92      	3690608.00      
 J-34            	3962454.01      	3699480.00      
 J-340           	3959843.16      	3690671.00      
 J-341           	3961934.20      	3693684.00      
 J-342           	3965171.97      	3687646.00      
 J-343           	3971022.62      	3704501.00      
 J-344           	3971203.37      	3704120.00      
 J-345           	3962116.43      	3701566.00      
 J-346           	3962150.17      	3701296.00      
 J-347           	3962364.84      	3701611.00      
 J-348           	3962223.88      	3702098.00      
 J-349           	3961506.30      	3698775.00      
 J-35            	3964803.01      	3687370.00      
 J-350           	3965518.18      	3699899.00      
 J-351           	3968212.18      	3699375.00      
 J-352           	3965592.09      	3700433.00      
 J-353           	3960618.44      	3696069.00      
 J-354           	3959857.55      	3695586.00      
 J-355           	3963054.22      	3700647.00      
 J-356           	3960202.36      	3690900.00      
 J-357           	3960083.86      	3691278.00      
 J-358           	3967869.00      	3704172.00      
 J-359           	3959183.21      	3695331.00      
 J-36            	3964586.16      	3686754.00      
 J-360           	3959391.71      	3695422.00      
 J-361           	3960703.76      	3699666.00      
 J-362           	3967410.62      	3705252.00      
 J-363           	3967224.30      	3701181.00      
 J-364           	3965092.22      	3700901.00      
 J-365           	3962083.69      	3698611.00      
 J-366           	3962301.79      	3698422.00      
 J-367           	3964287.26      	3699651.00      
 J-368           	3965245.20      	3701261.00      
 J-369           	3961814.82      	3694230.00      
 J-37            	3960851.62      	3695687.00      
 J-370           	3959033.58      	3690702.00      
 J-371           	3958675.61      	3695587.00      
 J-372           	3963516.65      	3697681.00      
 J-373           	3967975.17      	3699325.00      
 J-374           	3956891.52      	3691501.00      
 J-375           	3961693.68      	3699658.00      
 J-376           	3961745.62      	3700376.00      
 J-377           	3965686.04      	3700983.00      
 J-378           	3966779.91      	3699107.00      
 J-379           	3964199.87      	3698210.00      
 J-38            	3960329.42      	3695393.00      
 J-380           	3962575.02      	3697603.00      
 J-381           	3962815.31      	3697796.00      
 J-382           	3965110.60      	3701344.00      
 J-383           	3961448.76      	3694255.00      
 J-384           	3959612.61      	3696438.00      
 J-385           	3962030.78      	3700485.00      
 J-386           	3971005.71      	3701537.00      
 J-387           	3962265.20      	3700931.00      
 J-388           	3960223.25      	3693465.00      
 J-389           	3960073.97      	3692821.00      
 J-39            	3962749.46      	3695430.00      
 J-390           	3961992.77      	3699501.00      
 J-391           	3955784.59      	3690244.00      
 J-392           	3955853.77      	3689730.00      
 J-393           	3967129.63      	3702810.00      
 J-394           	3970330.75      	3701897.00      
 J-395           	3970307.67      	3701435.00      
 J-396           	3961256.67      	3707323.00      
 J-397           	3966643.76      	3705244.00      
 J-398           	3960745.80      	3700098.00      
 J-399           	3963328.39      	3693437.00      
 J-4             	3966635.06      	3706099.00      
 J-40            	3962586.04      	3695283.00      
 J-400           	3962199.72      	3701002.00      
 J-401           	3965092.22      	3700901.00      
 J-402           	3963228.41      	3699875.00      
 J-403           	3962529.62      	3698424.00      
 J-404           	3962632.96      	3698217.00      
 J-405           	3962820.03      	3697800.00      
 J-406           	3967624.76      	3700220.00      
 J-407           	3967631.75      	3700188.00      
 J-408           	3956838.96      	3688770.00      
 J-409           	3965603.28      	3700930.00      
 J-41            	3960561.03      	3693544.00      
 J-410           	3960349.66      	3691355.00      
 J-411           	3965938.62      	3702053.00      
 J-412           	3965977.90      	3702373.00      
 J-413           	3965646.12      	3701809.00      
 J-414           	3967372.61      	3702920.00      
 J-415           	3959494.41      	3691327.00      
 J-416           	3967541.18      	3701162.00      
 J-417           	3967499.88      	3701168.00      
 J-418           	3960991.47      	3698733.00      
 J-419           	3961439.25      	3698068.00      
 J-42            	3961749.07      	3693516.00      
 J-420           	3958650.38      	3697922.00      
 J-421           	3961466.45      	3698028.00      
 J-422           	3965581.90      	3686991.00      
 J-423           	3962604.66      	3698248.00      
 J-424           	3963205.34      	3698095.00      
 J-425           	3961218.64      	3694085.00      
 J-426           	3963558.32      	3694694.00      
 J-427           	3965842.69      	3686565.00      
 J-428           	3972778.34      	3704743.00      
 J-429           	3962622.14      	3698211.00      
 J-43            	3962696.60      	3696976.00      
 J-430           	3960488.36      	3699722.00      
 J-431           	3967736.66      	3699684.00      
 J-432           	3968079.91      	3699629.00      
 J-433           	3967333.13      	3704614.00      
 J-434           	3965963.16      	3704081.00      
 J-435           	3958228.62      	3693292.00      
 J-436           	3958294.12      	3693378.00      
 J-437           	3966723.14      	3705948.00      
 J-438           	3959554.59      	3692110.00      
 J-439           	3968564.78      	3703410.00      
 J-44            	3962487.71      	3707725.00      
 J-440           	3960411.30      	3700283.00      
 J-441           	3968938.30      	3703611.00      
 J-442           	3968921.46      	3703541.00      
 J-443           	3963441.01      	3693121.00      
 J-444           	3964504.55      	3693415.00      
 J-445           	3968696.09      	3704892.00      
 J-446           	3959606.94      	3693451.00      
 J-447           	3971049.67      	3705239.00      
 J-448           	3971448.86      	3705741.00      
 J-449           	3966365.85      	3707116.00      
 J-45            	3965900.55      	3707665.00      
 J-450           	3969098.71      	3704616.00      
 J-451           	3968777.06      	3704541.00      
 J-452           	3968722.49      	3704778.00      
 J-453           	3963901.66      	3697041.00      
 J-454           	3967558.20      	3707287.00      
 J-455           	3968497.51      	3708323.00      
 J-456           	3960705.26      	3697187.00      
 J-457           	3960868.45      	3697281.00      
 J-458           	3963520.31      	3695587.00      
 J-459           	3963443.02      	3695473.00      
 J-46            	3972854.86      	3705197.00      
 J-460           	3963988.93      	3697854.00      
 J-461           	3965433.42      	3686351.00      
 J-462           	3956922.60      	3689244.00      
 J-463           	3967298.08      	3701292.00      
 J-464           	3958728.96      	3697554.00      
 J-465           	3965148.08      	3699615.00      
 J-466           	3964824.27      	3700035.00      
 J-467           	3965543.65      	3704085.00      
 J-468           	3965936.23      	3704079.00      
 J-469           	3966768.87      	3699826.00      
 J-47            	3972755.57      	3704727.00      
 J-470           	3967036.50      	3699957.00      
 J-471           	3971615.59      	3704595.00      
 J-472           	3963909.92      	3692341.00      
 J-473           	3964371.66      	3696678.00      
 J-474           	3966179.00      	3700420.00      
 J-475           	3960364.73      	3698001.00      
 J-476           	3960823.55      	3696916.00      
 J-477           	3963232.18      	3693925.00      
 J-478           	3964145.25      	3694080.00      
 J-479           	3962055.87      	3702123.00      
 J-48            	3960851.57      	3695604.00      
 J-480           	3957151.52      	3692750.00      
 J-481           	3957497.01      	3692717.00      
 J-482           	3968060.74      	3703372.00      
 J-483           	3968552.85      	3702165.00      
 J-484           	3966008.50      	3703704.00      
 J-485           	3963246.41      	3693836.00      
 J-486           	3969104.03      	3704643.00      
 J-487           	3959325.46      	3695246.00      
 J-488           	3959293.00      	3695207.00      
 J-489           	3968751.19      	3704561.00      
 J-49            	3960863.89      	3695208.00      
 J-490           	3964968.27      	3686041.00      
 J-491           	3966675.90      	3687280.00      
 J-492           	3968701.41      	3704795.00      
 J-493           	3958373.84      	3694232.00      
 J-494           	3966891.36      	3699603.00      
 J-495           	3966272.60      	3700491.00      
 J-496           	3967312.73      	3701314.00      
 J-497           	3967322.48      	3701308.00      
 J-498           	3966540.55      	3699313.00      
 J-499           	3966488.25      	3699325.00      
 J-5             	3931183.72      	3715721.00      
 J-50            	3960578.00      	3691025.00      
 J-500           	3972737.51      	3704729.00      
 J-501           	3967498.42      	3700905.00      
 J-502           	3961073.32      	3696487.00      
 J-503           	3966055.69      	3700569.00      
 J-504           	3968027.59      	3711513.00      
 J-505           	3962364.71      	3700453.00      
 J-506           	3965280.91      	3698481.00      
 J-507           	3962209.78      	3699635.00      
 J-508           	3966492.47      	3699113.00      
 J-509           	3965739.39      	3702503.00      
 J-51            	3960515.43      	3685430.00      
 J-510           	3959549.06      	3697501.00      
 J-511           	3965957.59      	3704090.00      
 J-512           	3971695.62      	3705506.00      
 J-513           	3971868.21      	3705341.00      
 J-514           	3967982.39      	3702312.00      
 J-515           	3960155.72      	3699850.00      
 J-516           	3955553.50      	3689109.00      
 J-517           	3959687.98      	3690930.00      
 J-518           	3961090.24      	3697792.00      
 J-519           	3961478.47      	3698783.00      
 J-52            	3966771.87      	3702221.00      
 J-520           	3966253.41      	3707642.00      
 J-521           	3972248.69      	3706771.00      
 J-522           	3972558.32      	3707352.00      
 J-523           	3972611.63      	3706549.00      
 J-524           	3960533.48      	3704720.00      
 J-525           	3960432.52      	3704210.00      
 J-526           	3960469.45      	3703554.00      
 J-527           	3971651.81      	3705943.00      
 J-528           	3993840.84      	3687478.00      
 J-529           	3994522.09      	3681725.00      
 J-53            	3967209.01      	3702095.00      
 J-530           	3968017.81      	3711136.00      
 J-531           	3966682.96      	3706011.00      
 J-532           	3968339.71      	3704801.00      
 J-533           	3968258.53      	3705151.00      
 J-534           	3960491.47      	3693725.00      
 J-535           	3993466.71      	3727485.00      
 J-536           	3958475.73      	3694074.00      
 J-537           	3957753.36      	3693489.00      
 J-538           	3962830.26      	3694978.00      
 J-539           	3962213.14      	3694949.00      
 J-54            	3966889.03      	3701602.00      
 J-540           	3972080.33      	3706611.00      
 J-541           	3971939.73      	3706747.00      
 J-542           	3960199.59      	3704321.00      
 J-543           	3959525.20      	3704731.00      
 J-544           	3972215.10      	3706725.00      
 J-545           	3968161.58      	3705589.00      
 J-546           	3971969.74      	3706418.00      
 J-547           	3959928.97      	3695078.00      
 J-548           	3967240.67      	3705138.00      
 J-549           	3967343.70      	3704977.00      
 J-55            	3960794.28      	3694239.00      
 J-550           	3964168.85      	3705397.00      
 J-551           	3960501.70      	3698444.00      
 J-552           	3964461.81      	3699429.00      
 J-553           	3964897.50      	3687217.00      
 J-554           	3963490.07      	3697933.00      
 J-555           	3955494.77      	3689523.00      
 J-556           	3968003.60      	3710917.00      
 J-557           	3967450.50      	3710345.00      
 J-558           	3958771.03      	3694581.00      
 J-559           	3957717.65      	3693725.00      
 J-56            	3960533.79      	3694260.00      
 J-560           	3967076.36      	3712493.00      
 J-561           	3969020.71      	3704964.00      
 J-562           	3968950.70      	3705251.00      
 J-563           	3968916.54      	3702059.00      
 J-564           	3969518.66      	3701653.00      
 J-565           	3959137.21      	3696224.00      
 J-566           	3956819.44      	3691122.00      
 J-567           	3957257.13      	3691067.00      
 J-568           	3964405.54      	3692777.00      
 J-569           	3963958.86      	3693090.00      
 J-57            	3972450.54      	3704905.00      
 J-570           	3965681.72      	3703199.00      
 J-571           	3966005.81      	3703079.00      
 J-572           	3966242.66      	3688377.00      
 J-573           	3971830.19      	3703233.00      
 J-574           	3965585.14      	3704664.00      
 J-575           	3964909.25      	3704916.00      
 J-576           	4002335.64      	3683678.00      
 J-577           	3959660.90      	3695663.00      
 J-578           	3968173.34      	3712030.00      
 J-579           	3969296.57      	3706804.00      
 J-58            	3972809.26      	3704836.00      
 J-580           	3969756.66      	3701493.00      
 J-581           	3964632.94      	3699216.00      
 J-582           	3959919.45      	3696197.00      
 J-583           	3965573.55      	3687928.00      
 J-584           	3965749.96      	3687620.00      
 J-585           	3960440.92      	3697822.00      
 J-586           	3968153.30      	3700928.00      
 J-587           	3963038.29      	3700727.00      
 J-588           	3957118.11      	3692663.00      
 J-589           	3965664.33      	3703202.00      
 J-59            	3966574.57      	3701927.00      
 J-590           	3965013.43      	3703155.00      
 J-591           	3958656.94      	3695594.00      
 J-592           	3959065.97      	3695220.00      
 J-593           	3965804.70      	3704666.00      
 J-594           	3957898.14      	3693080.00      
 J-595           	3958162.62      	3693052.00      
 J-596           	3968940.10      	3708403.00      
 J-597           	3962970.46      	3697156.00      
 J-598           	3966775.40      	3686967.00      
 J-599           	3968883.71      	3702013.00      
 J-6             	3927503.62      	3707516.00      
 J-60            	3966347.42      	3701584.00      
 J-600           	3968540.85      	3701502.00      
 J-601           	3958640.98      	3695255.00      
 J-602           	3966009.54      	3704446.00      
 J-603           	3962875.64      	3695441.00      
 J-604           	3963100.44      	3695454.00      
 J-605           	3967651.59      	3701809.00      
 J-606           	3967984.91      	3701557.00      
 J-607           	3965082.25      	3704758.00      
 J-608           	3965240.30      	3686633.00      
 J-609           	3968154.11      	3699646.00      
 J-61            	3965986.19      	3702372.00      
 J-610           	3963676.10      	3698462.00      
 J-611           	3967244.97      	3699509.00      
 J-612           	3971154.11      	3700587.00      
 J-613           	3965908.29      	3687196.00      
 J-614           	3966331.53      	3687058.00      
 J-615           	3963546.34      	3697591.00      
 J-616           	3967627.78      	3700203.00      
 J-617           	3966235.63      	3704085.00      
 J-618           	3968485.47      	3703084.00      
 J-619           	3957354.62      	3690805.00      
 J-619a          	3967974.44      	3699309.00      
 J-62            	3965981.63      	3702334.00      
 J-620           	3959039.73      	3695253.00      
 J-621           	3966473.53      	3687849.00      
 J-622           	3965060.42      	3704087.00      
 J-623           	3969086.47      	3708953.00      
 J-624           	3963390.63      	3695837.00      
 J-625           	3968263.46      	3703234.00      
 J-626           	3969068.58      	3709036.00      
 J-627           	3964367.39      	3696022.00      
 J-628           	3963794.73      	3697590.00      
 J-629           	3966845.42      	3704913.00      
 J-63            	3960442.42      	3698526.00      
 J-630           	3966731.49      	3705100.00      
 J-631           	3966089.17      	3703071.00      
 J-632           	3967822.05      	3712452.00      
 J-633           	3964984.78      	3703322.00      
 J-634           	3945383.05      	3705554.00      
 J-635           	3967431.58      	3701958.00      
 J-636           	3965946.42      	3702043.00      
 J-637           	3966110.27      	3702010.00      
 J-638           	3970960.74      	3705152.00      
 J-639           	3966538.50      	3705400.00      
 J-64            	3960380.59      	3698472.00      
 J-640           	3959006.57      	3695578.00      
 J-641           	3963558.32      	3694694.00      
 J-642           	3967614.58      	3700197.00      
 J-643           	3963200.19      	3695170.00      
 J-644           	3963155.74      	3694713.00      
 J-645           	3962871.94      	3694638.00      
 J-646           	3963116.16      	3695011.00      
 J-647           	3960555.69      	3693500.00      
 J-648           	3960662.93      	3692723.00      
 J-649           	3960579.77      	3692686.00      
 J-65            	3964664.87      	3705383.00      
 J-650           	3960669.18      	3692667.00      
 J-651           	3958813.63      	3694323.00      
 J-652           	3938746.22      	3705884.00      
 J-653           	3961276.65      	3699848.00      
 J-654           	3960880.37      	3699573.00      
 J-655           	3965662.28      	3703192.00      
 J-656           	3964854.82      	3705413.00      
 J-657           	3959630.91      	3693579.00      
 J-658           	3938396.22      	3705821.00      
 J-659           	3954108.13      	3696900.00      
 J-66            	3964252.99      	3705363.00      
 J-660           	3960218.94      	3692536.00      
 J-661           	3957669.80      	3693352.00      
 J-662           	3958242.79      	3692530.00      
 J-663           	3960650.82      	3692273.00      
 J-664           	3937089.94      	3705906.00      
 J-665           	3963728.69      	3692628.00      
 J-666           	3956700.70      	3692692.00      
 J-667           	3964241.95      	3705330.00      
 J-668           	3968925.31      	3708923.00      
 J-669           	3964268.21      	3698920.00      
 J-67            	3966567.62      	3702882.00      
 J-670           	3965629.39      	3702915.00      
 J-671           	3965443.97      	3702919.00      
 J-672           	3959818.09      	3691996.00      
 J-673           	3964383.03      	3697591.00      
 J-674           	3964139.42      	3697924.00      
 J-675           	3970621.68      	3704820.00      
 J-676           	3969003.96      	3704961.00      
 J-677           	3967002.45      	3705353.00      
 J-678           	3960546.57      	3704909.00      
 J-679           	3962927.67      	3697498.00      
 J-68            	3967725.05      	3705245.00      
 J-680           	3970337.50      	3701943.00      
 J-681           	3966290.58      	3704473.00      
 J-682           	3960303.77      	3698572.00      
 J-683           	3977975.51      	3679427.00      
 J-684           	3965067.58      	3704150.00      
 J-685           	3978039.11      	3679368.00      
 J-686           	3944916.02      	3714827.00      
 J-687           	3964012.47      	3692756.00      
 J-688           	3968059.86      	3702429.00      
 J-689           	3968308.00      	3702813.00      
 J-69            	3968102.58      	3704681.00      
 J-690           	3972092.58      	3705534.00      
 J-691           	3968621.02      	3702726.00      
 J-692           	3937104.48      	3702287.00      
 J-693           	3972415.92      	3703982.00      
 J-694           	3960218.94      	3692536.00      
 J-695           	3932961.84      	3706137.00      
 J-696           	3968583.53      	3705335.00      
 J-697           	3958016.53      	3698004.00      
 J-698           	3962055.90      	3704442.00      
 J-699           	3962162.79      	3705303.00      
 J-7             	3966900.22      	3706953.00      
 J-70            	3965962.36      	3701670.00      
 J-700           	3961841.62      	3694549.00      
 J-701           	3972319.52      	3704028.00      
 J-702           	3972375.86      	3704102.00      
 J-703           	3962883.87      	3694501.00      
 J-704           	3968082.87      	3700632.00      
 J-705           	3968133.03      	3700424.00      
 J-706           	3970544.38      	3700938.00      
 J-707           	3968323.83      	3700719.00      
 J-708           	3970146.02      	3701211.00      
 J-709           	3970150.27      	3701217.00      
 J-71            	3960786.94      	3694079.00      
 J-710           	3966363.10      	3707324.00      
 J-711           	3961251.75      	3704823.00      
 J-712           	3962048.38      	3700489.00      
 J-713           	3962806.65      	3697815.00      
 J-714           	3960294.39      	3698204.00      
 J-715           	3955619.35      	3688014.00      
 J-716           	3959547.94      	3693079.00      
 J-717           	3966047.61      	3703391.00      
 J-718           	3961937.72      	3696951.00      
 J-719           	3953182.96      	3690739.00      
 J-72            	3960674.00      	3693796.00      
 J-720           	3962236.36      	3697138.00      
 J-721           	3963175.59      	3698094.00      
 J-722           	3963164.44      	3698062.00      
 J-723           	3963152.14      	3698078.00      
 J-724           	3967535.33      	3707558.00      
 J-725           	3963655.58      	3696249.00      
 J-726           	3963327.40      	3698201.00      
 J-727           	3982579.38      	3702031.00      
 J-728           	3968726.69      	3704798.00      
 J-729           	3972558.76      	3707152.00      
 J-73            	3967841.64      	3699294.00      
 J-730           	3972742.50      	3706996.00      
 J-731           	3971499.88      	3700284.00      
 J-732           	3971498.73      	3700283.00      
 J-733           	3967343.21      	3708096.00      
 J-734           	3970180.23      	3704374.00      
 J-735           	3971501.16      	3700284.00      
 J-736           	3970488.78      	3704683.00      
 J-737           	3966035.00      	3688243.00      
 J-738           	3968821.13      	3708282.00      
 J-739           	3963337.02      	3698191.00      
 J-74            	3967871.86      	3699301.00      
 J-740           	3955723.47      	3689537.00      
 J-741           	3955622.33      	3688597.00      
 J-742           	3955886.20      	3688718.00      
 J-743           	3972224.68      	3706683.00      
 J-744           	3963217.46      	3694083.00      
 J-745           	3972238.09      	3706696.00      
 J-746           	3972174.31      	3706700.00      
 J-747           	3988500.59      	3696310.00      
 J-748           	3969175.22      	3694261.00      
 J-749           	3972199.68      	3706713.00      
 J-75            	3956734.44      	3690952.00      
 J-750           	3974021.40      	3686427.00      
 J-751           	3987340.17      	3686204.00      
 J-752           	3942091.01      	3710777.00      
 J-753           	3936889.31      	3709307.00      
 J-754           	3963522.02      	3697966.00      
 J-755           	3963525.75      	3697970.00      
 J-756           	3963526.71      	3697963.00      
 J-757           	3963530.19      	3697966.00      
 J-758           	3963527.73      	3697968.00      
 J-759           	3963524.22      	3697965.00      
 J-76            	3959463.94      	3692591.00      
 J-760           	3960868.24      	3693520.00      
 J-761           	3967975.12      	3699305.00      
 J-77            	3965399.55      	3704090.00      
 J-78            	3965398.15      	3704080.00      
 J-79            	3962206.02      	3701665.00      
 J-8             	3966397.58      	3707123.00      
 J-80            	3962549.76      	3701755.00      
 J-81            	3963567.23      	3697721.00      
 J-82            	3963580.61      	3697784.00      
 J-83            	3962679.46      	3700558.00      
 J-84            	3962912.11      	3699803.00      
 J-85            	3967046.06      	3712063.00      
 J-86            	3967012.89      	3711583.00      
 J-87            	3966990.16      	3702606.00      
 J-88            	3967368.55      	3702353.00      
 J-89            	3959410.43      	3698306.00      
 J-9             	3972840.64      	3704536.00      
 J-90            	3959485.98      	3697867.00      
 J-91            	3967900.29      	3699199.00      
 J-92            	3960358.43      	3700304.00      
 J-93            	3960016.63      	3700436.00      
 J-94            	3969052.07      	3702248.00      
 J-95            	3969247.41      	3702540.00      
 J-96            	3962475.30      	3697495.00      
 J-97            	3962588.43      	3697587.00      
 J-98            	3965122.70      	3704455.00      
 J-99            	3965075.79      	3704096.00      
 I-Pump-1        	3971500.31      	3700285.00      
 I-Pump-2        	3971500.71      	3700284.00      
 I-Pump-3        	3963528.60      	3697964.00      
 O-AV-1          	3963525.95      	3697967.00      
 I-AV-2          	3967974.42      	3699307.00      
 O-Pump-1        	3971500.31      	3700285.00      
 O-Pump-2        	3971500.71      	3700284.00      
 O-Pump-3        	3963528.60      	3697964.00      

[VERTICES]
;Link            	X-Coord         	Y-Coord
 P-1             	3958331.90      	3704539.76      
 P-1             	3958369.50      	3704291.96      
 P-1             	3958434.31      	3704172.54      
 P-1             	3958514.27      	3703970.20      
 P-1             	3958509.26      	3703820.31      
 P-1             	3958404.35      	3703303.21      
 P-1             	3958359.39      	3703055.90      
 P-1             	3958318.00      	3702903.01      
 P-10            	3964961.20      	3690510.37      
 P-10            	3965067.91      	3690339.12      
 P-10            	3965223.58      	3690094.37      
 P-10            	3965373.78      	3689839.56      
 P-10            	3965440.45      	3689718.14      
 P-10            	3965875.80      	3688983.49      
 P-100           	3962629.02      	3704234.87      
 P-100           	3963447.04      	3703818.68      
 P-100           	3964422.92      	3703215.93      
 P-101           	3966280.65      	3707642.58      
 P-101           	3966292.07      	3707642.76      
 P-101           	3966287.69      	3707666.68      
 P-103           	3966944.81      	3710383.92      
 P-104           	3964337.73      	3697216.77      
 P-104           	3964362.41      	3697216.80      
 P-105           	3967121.44      	3704482.15      
 P-107           	3962024.85      	3693977.56      
 P-107           	3962395.48      	3694061.12      
 P-107           	3962651.28      	3694085.60      
 P-108           	3965478.90      	3702163.63      
 P-108           	3965478.75      	3702160.17      
 P-108           	3965476.98      	3702119.41      
 P-108           	3965461.11      	3701951.21      
 P-109           	3966169.88      	3701316.86      
 P-11            	3967338.09      	3701332.12      
 P-111           	3972044.71      	3704585.96      
 P-111           	3971684.40      	3704213.91      
 P-112           	3971412.53      	3702680.90      
 P-114           	3963307.50      	3696281.33      
 P-114           	3963295.50      	3696321.93      
 P-114           	3963453.88      	3696503.36      
 P-114           	3963574.30      	3696534.12      
 P-115           	3964508.00      	3705178.25      
 P-115           	3964504.41      	3705145.14      
 P-116           	3962838.56      	3697815.06      
 P-116           	3962978.88      	3697920.37      
 P-116           	3963149.19      	3698051.19      
 P-117           	3963327.35      	3696181.56      
 P-118           	3966133.86      	3708280.60      
 P-118           	3966460.02      	3708369.77      
 P-12            	3960711.52      	3698887.18      
 P-124           	3965283.81      	3702781.01      
 P-124           	3965516.46      	3702636.83      
 P-124           	3965575.63      	3702599.25      
 P-124           	3965734.80      	3702496.88      
 P-124           	3965780.20      	3702467.26      
 P-124           	3965935.34      	3702365.19      
 P-124           	3965963.86      	3702346.42      
 P-124           	3965973.53      	3702340.06      
 P-125           	3972087.76      	3704575.55      
 P-125           	3972308.32      	3704411.51      
 P-125           	3972565.92      	3704218.43      
 P-125           	3972578.56      	3704219.23      
 P-126           	3971497.00      	3701290.15      
 P-126           	3971608.89      	3701205.56      
 P-126           	3971618.27      	3701198.47      
 P-126           	3971718.20      	3700977.03      
 P-126           	3971714.94      	3700933.32      
 P-128           	3963542.80      	3697691.17      
 P-129           	3958352.99      	3696739.24      
 P-129           	3958366.68      	3696607.82      
 P-129           	3958369.70      	3696527.77      
 P-129           	3958724.41      	3696498.38      
 P-13            	3967862.39      	3700496.79      
 P-13            	3967934.09      	3700601.46      
 P-13            	3968010.40      	3700712.85      
 P-130           	3966559.35      	3701113.98      
 P-130           	3966570.09      	3701133.51      
 P-130           	3966732.46      	3701374.20      
 P-132           	3963989.80      	3700050.07      
 P-132           	3964186.97      	3700092.57      
 P-132           	3964297.36      	3700136.86      
 P-132           	3964436.68      	3700196.68      
 P-132           	3964463.39      	3700205.20      
 P-132           	3964597.74      	3700292.73      
 P-133           	3970828.28      	3700744.43      
 P-133           	3970843.27      	3700765.24      
 P-133           	3971128.10      	3701160.49      
 P-134           	3969616.94      	3706266.95      
 P-135           	3966913.28      	3705612.14      
 P-135           	3966565.69      	3705398.19      
 P-138           	3958766.23      	3691035.82      
 P-138           	3958821.92      	3691320.11      
 P-139           	3962464.94      	3699694.66      
 P-139           	3962599.60      	3699725.33      
 P-14            	3965235.50      	3700673.44      
 P-14            	3965405.00      	3700427.88      
 P-142           	3961102.01      	3701378.87      
 P-142           	3961117.62      	3701304.50      
 P-142           	3961194.57      	3701278.07      
 P-142           	3961201.72      	3701115.12      
 P-142           	3961215.12      	3700809.44      
 P-142           	3961141.20      	3700597.40      
 P-142           	3961110.32      	3699968.11      
 P-146           	3968172.95      	3704243.07      
 P-146           	3968259.37      	3704293.53      
 P-147           	3959637.46      	3697004.36      
 P-147           	3959636.81      	3696882.47      
 P-148           	3964392.17      	3705068.30      
 P-148           	3964467.24      	3705057.78      
 P-148           	3964531.28      	3705042.24      
 P-148           	3964608.29      	3705023.55      
 P-148           	3964712.76      	3704994.49      
 P-148           	3964730.02      	3704989.69      
 P-149           	3960078.75      	3691748.87      
 P-15            	3966451.87      	3702322.68      
 P-152           	3966895.09      	3703593.19      
 P-153           	3963346.38      	3696048.04      
 P-155           	3966273.09      	3704067.88      
 P-155           	3966463.70      	3704069.47      
 P-155           	3966550.37      	3704165.94      
 P-155           	3966560.64      	3704172.39      
 P-155           	3966679.62      	3704247.06      
 P-156           	3963087.73      	3696621.91      
 P-156           	3963125.69      	3696413.77      
 P-156           	3963104.84      	3696397.39      
 P-156           	3963073.90      	3696373.07      
 P-156           	3963139.89      	3695944.85      
 P-156           	3963193.64      	3695612.37      
 P-156           	3963270.85      	3695612.19      
 P-156           	3963309.04      	3695612.12      
 P-158           	3967177.93      	3704437.69      
 P-159           	3964077.60      	3696917.70      
 P-159           	3964346.48      	3696961.27      
 P-16            	3960618.16      	3698160.85      
 P-16            	3960648.98      	3698158.02      
 P-160           	3966128.65      	3708193.15      
 P-160           	3966146.65      	3708109.48      
 P-160           	3966141.71      	3708083.99      
 P-160           	3966131.89      	3708033.28      
 P-160           	3966164.35      	3707821.49      
 P-160           	3966170.60      	3707780.73      
 P-160           	3966207.42      	3707728.03      
 P-160           	3966236.37      	3707702.93      
 P-160           	3966252.70      	3707688.77      
 P-160           	3966258.65      	3707668.93      
 P-161           	3971400.66      	3700338.21      
 P-161           	3971279.01      	3700145.88      
 P-162           	3967079.77      	3701435.80      
 P-162           	3967069.80      	3701420.62      
 P-162           	3966945.24      	3701233.07      
 P-162           	3966918.07      	3701189.94      
 P-162           	3966776.04      	3700980.63      
 P-163           	3963314.55      	3695535.54      
 P-163           	3963316.48      	3695429.20      
 P-163           	3963300.18      	3695292.56      
 P-163           	3963280.24      	3695095.77      
 P-163           	3963279.36      	3695085.59      
 P-163           	3963262.71      	3694892.10      
 P-164           	3964382.52      	3697446.62      
 P-166           	3968326.00      	3703334.23      
 P-166           	3968422.20      	3703479.57      
 P-167           	3960087.33      	3699444.21      
 P-168           	3964845.99      	3705330.67      
 P-169           	3960407.15      	3699326.14      
 P-169           	3960542.17      	3699282.39      
 P-169           	3960566.09      	3699274.64      
 P-169           	3960616.99      	3699388.04      
 P-169           	3960648.91      	3699382.33      
 P-17            	3969019.42      	3705020.02      
 P-17            	3969001.54      	3705091.71      
 P-17            	3968953.87      	3705295.04      
 P-17            	3968951.36      	3705305.75      
 P-17            	3968646.40      	3705233.16      
 P-17            	3968628.58      	3705228.92      
 P-170           	3970723.05      	3700818.02      
 P-170           	3970828.28      	3700744.43      
 P-170           	3970857.55      	3700723.95      
 P-170           	3970972.35      	3700646.84      
 P-170           	3971046.22      	3700626.39      
 P-171           	3966913.30      	3703602.13      
 P-171           	3966941.75      	3703616.10      
 P-171           	3966941.38      	3703677.36      
 P-171           	3967169.97      	3703827.47      
 P-171           	3967310.77      	3703921.89      
 P-171           	3967600.76      	3704090.52      
 P-171           	3967753.85      	3704172.63      
 P-171           	3967800.16      	3704188.07      
 P-171           	3967826.47      	3704194.37      
 P-172           	3964193.52      	3696060.27      
 P-172           	3963856.07      	3695996.45      
 P-172           	3963751.12      	3695977.08      
 P-173           	3966930.44      	3710145.25      
 P-173           	3966848.64      	3710025.63      
 P-173           	3966826.65      	3709921.53      
 P-173           	3966630.80      	3709648.98      
 P-173           	3966518.40      	3709508.84      
 P-173           	3966424.70      	3709392.67      
 P-173           	3966382.20      	3709432.03      
 P-173           	3966312.57      	3709347.19      
 P-173           	3966196.13      	3709345.31      
 P-173           	3966117.69      	3709242.10      
 P-174           	3963350.51      	3695540.69      
 P-174           	3963314.55      	3695535.54      
 P-174           	3963302.89      	3695533.89      
 P-175           	3963158.29      	3696391.32      
 P-175           	3963202.11      	3696444.31      
 P-175           	3963359.09      	3696624.12      
 P-175           	3963455.20      	3696712.25      
 P-175           	3963620.61      	3696877.88      
 P-175           	3963851.92      	3697121.61      
 P-175           	3963965.49      	3697267.98      
 P-175           	3964069.86      	3697392.40      
 P-176           	3967922.40      	3702702.73      
 P-176           	3967930.26      	3702714.87      
 P-176           	3968079.53      	3702945.47      
 P-178           	3967526.43      	3704688.23      
 P-178           	3967610.09      	3704554.87      
 P-178           	3967750.91      	3704342.18      
 P-178           	3967837.41      	3704217.71      
 P-179           	3968264.23      	3704330.40      
 P-179           	3968261.94      	3704387.61      
 P-179           	3968237.87      	3704444.48      
 P-18            	3962875.64      	3698509.54      
 P-18            	3962800.18      	3698624.12      
 P-180           	3965508.02      	3703181.23      
 P-181           	3965332.71      	3703313.88      
 P-181           	3965292.61      	3703314.80      
 P-181           	3965293.68      	3703352.42      
 P-181           	3965278.37      	3703352.58      
 P-181           	3965002.06      	3703355.48      
 P-181           	3964987.52      	3703355.63      
 P-182           	3967385.08      	3702376.92      
 P-184           	3970144.74      	3704125.06      
 P-184           	3970272.29      	3704032.93      
 P-184           	3970349.60      	3703989.48      
 P-184           	3970445.18      	3703901.64      
 P-184           	3970482.07      	3703855.79      
 P-185           	3967556.37      	3702627.32      
 P-186           	3964388.04      	3705202.36      
 P-187           	3960139.88      	3696035.07      
 P-188           	3971452.95      	3700351.22      
 P-188           	3971428.65      	3700424.07      
 P-188           	3971401.71      	3700456.67      
 P-188           	3971353.80      	3700490.04      
 P-188           	3971268.71      	3700542.09      
 P-188           	3971190.44      	3700581.57      
 P-189           	3960429.14      	3698813.31      
 P-19            	3964792.01      	3687362.76      
 P-19            	3964644.41      	3687252.47      
 P-19            	3964393.18      	3687070.53      
 P-19            	3964402.83      	3687054.71      
 P-19            	3964458.78      	3686962.98      
 P-190           	3972271.55      	3704982.98      
 P-191           	3966512.34      	3706144.22      
 P-192           	3959829.50      	3692639.80      
 P-192           	3959929.13      	3692620.79      
 P-192           	3959936.99      	3692619.29      
 P-192           	3959928.48      	3692584.02      
 P-193           	3963204.95      	3695960.19      
 P-193           	3963250.74      	3695721.69      
 P-193           	3963269.89      	3695630.05      
 P-193           	3963270.85      	3695612.19      
 P-194           	3968418.10      	3703510.29      
 P-194           	3968401.52      	3703521.62      
 P-194           	3968277.59      	3703604.45      
 P-194           	3968233.81      	3703633.71      
 P-194           	3968224.98      	3703639.61      
 P-194           	3968143.22      	3703737.17      
 P-195           	3968091.50      	3702963.93      
 P-197           	3957536.55      	3693488.18      
 P-197           	3957560.04      	3693439.88      
 P-198           	3972498.84      	3706605.66      
 P-198           	3972512.03      	3706622.75      
 P-198           	3972515.14      	3706707.14      
 P-198           	3972708.91      	3706954.01      
 P-199           	3959579.66      	3697323.40      
 P-2             	3966483.89      	3706617.39      
 P-2             	3966549.35      	3706261.42      
 P-2             	3966624.45      	3706115.15      
 P-20            	3960648.00      	3695626.67      
 P-20            	3960467.65      	3695489.42      
 P-20            	3960369.41      	3695425.14      
 P-200           	3963658.31      	3697394.72      
 P-200           	3963530.36      	3697271.92      
 P-200           	3963437.22      	3697171.06      
 P-200           	3963360.31      	3697098.73      
 P-200           	3963216.26      	3696938.22      
 P-200           	3963172.26      	3696916.12      
 P-200           	3963120.67      	3696904.34      
 P-201           	3964235.03      	3697678.71      
 P-201           	3964235.96      	3697680.45      
 P-203           	3963608.19      	3695643.71      
 P-203           	3963656.16      	3695671.16      
 P-203           	3963807.16      	3695709.68      
 P-204           	3969797.67      	3706291.97      
 P-204           	3969991.58      	3706072.97      
 P-204           	3970178.93      	3705866.57      
 P-205           	3967921.40      	3703162.15      
 P-206           	3959577.59      	3692180.28      
 P-206           	3959482.93      	3692262.98      
 P-207           	3964167.45      	3705114.24      
 P-207           	3964175.78      	3705110.25      
 P-207           	3964173.68      	3705104.73      
 P-207           	3964171.83      	3705099.85      
 P-207           	3964185.71      	3705096.09      
 P-207           	3964207.79      	3705090.10      
 P-207           	3964295.38      	3705081.87      
 P-207           	3964341.39      	3705075.42      
 P-208           	3968280.51      	3703302.99      
 P-209           	3971509.87      	3703126.71      
 P-209           	3971616.73      	3703185.59      
 P-209           	3971566.02      	3703256.03      
 P-21            	3962677.73      	3695413.48      
 P-21            	3962593.32      	3695294.05      
 P-210           	3961135.23      	3696332.25      
 P-210           	3960966.54      	3696223.63      
 P-210           	3960966.45      	3696172.00      
 P-210           	3960859.83      	3696156.70      
 P-212           	3968283.47      	3704319.81      
 P-212           	3968278.22      	3704391.96      
 P-212           	3968248.49      	3704461.01      
 P-213           	3971143.23      	3701200.49      
 P-213           	3971151.25      	3701211.63      
 P-214           	3960602.23      	3705935.12      
 P-214           	3960623.80      	3705936.00      
 P-215           	3967715.34      	3702868.24      
 P-215           	3967744.12      	3702907.78      
 P-216           	3960767.86      	3697864.65      
 P-216           	3960828.42      	3697689.74      
 P-217           	3966619.91      	3699483.24      
 P-219           	3965487.88      	3704697.70      
 P-22            	3960588.83      	3693538.25      
 P-22            	3960636.44      	3693526.99      
 P-22            	3960650.89      	3693523.57      
 P-22            	3960760.77      	3693504.64      
 P-22            	3960851.31      	3693512.86      
 P-220           	3960255.55      	3710870.88      
 P-220           	3960427.38      	3710855.87      
 P-220           	3960528.29      	3710913.14      
 P-220           	3960907.40      	3711192.69      
 P-220           	3960979.67      	3711258.16      
 P-220           	3961016.49      	3711346.78      
 P-220           	3961114.33      	3711585.95      
 P-220           	3961216.61      	3711776.86      
 P-220           	3961351.27      	3712061.52      
 P-220           	3961383.64      	3712110.97      
 P-220           	3961397.30      	3712163.81      
 P-220           	3961525.16      	3712358.13      
 P-220           	3961608.67      	3712482.56      
 P-220           	3961738.22      	3712678.60      
 P-220           	3961808.11      	3712821.78      
 P-220           	3961947.88      	3713012.69      
 P-220           	3962056.97      	3713130.31      
 P-221           	3971459.55      	3700351.86      
 P-221           	3971443.17      	3700412.16      
 P-221           	3971422.82      	3700444.90      
 P-221           	3971388.79      	3700471.88      
 P-221           	3971297.03      	3700528.77      
 P-221           	3971212.53      	3700577.53      
 P-222           	3962029.83      	3699609.52      
 P-222           	3961955.11      	3699573.24      
 P-222           	3961926.83      	3699559.51      
 P-222           	3961804.31      	3699500.02      
 P-222           	3961800.32      	3699484.42      
 P-222           	3961529.59      	3699464.55      
 P-223           	3969214.72      	3708318.07      
 P-223           	3969216.05      	3708311.66      
 P-223           	3969373.82      	3708241.21      
 P-223           	3969575.53      	3708155.31      
 P-223           	3969810.05      	3708013.52      
 P-223           	3970034.52      	3707784.88      
 P-223           	3970264.06      	3707639.61      
 P-223           	3970284.03      	3707626.97      
 P-223           	3970687.76      	3707388.94      
 P-223           	3970916.85      	3707279.76      
 P-223           	3971261.78      	3707087.40      
 P-224           	3958899.54      	3696062.70      
 P-224           	3959006.88      	3696100.99      
 P-225           	3962376.89      	3702031.60      
 P-225           	3962362.33      	3701980.78      
 P-226           	3962291.27      	3693742.49      
 P-226           	3962350.83      	3693736.54      
 P-226           	3962414.17      	3693694.05      
 P-226           	3962433.12      	3693544.22      
 P-227           	3959459.40      	3690575.87      
 P-227           	3959595.32      	3690558.45      
 P-227           	3959724.25      	3690596.77      
 P-227           	3959786.63      	3690637.15      
 P-228           	3962054.19      	3693708.63      
 P-228           	3962124.92      	3693718.58      
 P-230           	3971041.55      	3704471.78      
 P-230           	3971056.99      	3704245.73      
 P-230           	3971082.99      	3704212.53      
 P-231           	3966713.67      	3704224.96      
 P-231           	3966716.44      	3704222.04      
 P-231           	3966753.04      	3704246.58      
 P-231           	3966763.60      	3704253.66      
 P-232           	3966143.84      	3707672.75      
 P-232           	3966185.24      	3707644.86      
 P-232           	3966230.98      	3707642.83      
 P-233           	3962118.70      	3701322.65      
 P-233           	3962118.86      	3701304.75      
 P-234           	3962339.01      	3701700.47      
 P-235           	3961532.66      	3699379.43      
 P-235           	3961535.72      	3699257.20      
 P-235           	3961542.67      	3698980.31      
 P-235           	3961547.41      	3698791.44      
 P-235           	3961533.82      	3698791.10      
 P-235           	3961505.94      	3698790.39      
 P-235           	3961506.00      	3698787.72      
 P-237           	3970229.04      	3699414.86      
 P-238           	3965471.14      	3700397.66      
 P-239           	3960609.22      	3696083.83      
 P-239           	3960572.12      	3696056.06      
 P-239           	3960129.51      	3695724.70      
 P-239           	3960116.88      	3695716.08      
 P-239           	3959876.87      	3695552.18      
 P-24            	3962944.74      	3707698.46      
 P-24            	3963448.61      	3707658.48      
 P-24            	3964469.19      	3707578.73      
 P-24            	3964863.54      	3707572.26      
 P-24            	3965338.28      	3707551.04      
 P-24            	3965731.44      	3707618.25      
 P-240           	3962702.19      	3700564.22      
 P-240           	3962726.09      	3700570.64      
 P-241           	3960189.04      	3690921.64      
 P-241           	3960097.50      	3691064.94      
 P-241           	3960058.88      	3691135.36      
 P-241           	3960058.77      	3691138.20      
 P-241           	3960056.60      	3691192.16      
 P-242           	3967875.01      	3704163.62      
 P-245           	3967624.15      	3705389.89      
 P-245           	3967645.09      	3705359.94      
 P-246           	3967233.73      	3701175.43      
 P-246           	3967400.18      	3701070.16      
 P-246           	3967420.95      	3701022.34      
 P-246           	3967481.39      	3700995.90      
 P-246           	3967484.05      	3700922.13      
 P-246           	3967489.41      	3700773.78      
 P-246           	3967496.96      	3700735.91      
 P-246           	3967537.75      	3700531.57      
 P-246           	3967564.76      	3700417.92      
 P-246           	3967610.74      	3700215.35      
 P-246           	3967613.44      	3700203.43      
 P-247           	3965107.52      	3700876.18      
 P-247           	3965156.65      	3700793.46      
 P-248           	3962096.17      	3698592.10      
 P-248           	3962160.38      	3698490.62      
 P-248           	3962222.44      	3698460.69      
 P-249           	3963983.77      	3700031.02      
 P-249           	3964122.98      	3699861.72      
 P-249           	3964274.62      	3699668.07      
 P-25            	3972840.59      	3705113.73      
 P-25            	3972824.86      	3705020.36      
 P-25            	3972797.71      	3704859.09      
 P-25            	3972795.45      	3704845.68      
 P-25            	3972793.66      	3704840.38      
 P-25            	3972762.06      	3704746.53      
 P-250           	3965256.98      	3701277.40      
 P-250           	3965290.18      	3701321.70      
 P-250           	3965333.46      	3701410.27      
 P-250           	3965377.55      	3701495.85      
 P-250           	3965426.18      	3701533.77      
 P-250           	3965507.18      	3701564.48      
 P-252           	3958860.07      	3690757.06      
 P-252           	3958983.23      	3690716.89      
 P-253           	3961756.88      	3693514.15      
 P-253           	3961905.21      	3693468.86      
 P-253           	3962184.80      	3693365.72      
 P-253           	3962298.79      	3693332.18      
 P-253           	3962377.81      	3693304.79      
 P-253           	3962516.83      	3693291.18      
 P-253           	3962720.00      	3693325.42      
 P-254           	3962678.97      	3694055.90      
 P-254           	3962726.14      	3693681.93      
 P-254           	3962759.80      	3693453.22      
 P-254           	3962711.74      	3693447.25      
 P-256           	3971435.11      	3702882.61      
 P-258           	3959929.84      	3690725.70      
 P-258           	3960166.80      	3690879.02      
 P-26            	3960868.51      	3695294.39      
 P-260           	3961702.78      	3699689.71      
 P-260           	3961739.48      	3699811.90      
 P-260           	3961782.00      	3699939.31      
 P-260           	3961723.63      	3700156.42      
 P-260           	3961727.12      	3700287.55      
 P-261           	3963180.86      	3698087.61      
 P-262           	3965662.01      	3700998.64      
 P-262           	3965291.48      	3701227.71      
 P-263           	3967717.04      	3699503.39      
 P-264           	3963588.12      	3697737.55      
 P-264           	3963602.06      	3697748.57      
 P-264           	3963630.54      	3697771.08      
 P-264           	3963797.43      	3697895.72      
 P-264           	3963937.16      	3698002.42      
 P-264           	3964110.46      	3698139.38      
 P-265           	3962588.49      	3697614.70      
 P-265           	3962730.44      	3697728.13      
 P-265           	3962808.71      	3697791.06      
 P-265           	3962810.43      	3697792.44      
 P-266           	3965231.67      	3701270.05      
 P-267           	3968161.76      	3704600.01      
 P-268           	3961788.75      	3694224.56      
 P-268           	3961591.48      	3694189.16      
 P-268           	3961543.84      	3694198.09      
 P-268           	3961464.51      	3694246.16      
 P-269           	3959626.26      	3696667.12      
 P-27            	3960559.18      	3690783.99      
 P-27            	3960515.43      	3690199.60      
 P-27            	3960602.93      	3690193.35      
 P-27            	3960562.29      	3689793.35      
 P-27            	3960534.18      	3689421.48      
 P-27            	3960481.06      	3689074.61      
 P-27            	3960447.04      	3688948.08      
 P-27            	3960440.42      	3688640.23      
 P-27            	3960465.42      	3688390.23      
 P-27            	3960515.43      	3687905.86      
 P-27            	3960559.18      	3687421.48      
 P-27            	3960565.43      	3687133.98      
 P-27            	3960571.68      	3686877.73      
 P-27            	3960574.80      	3686715.23      
 P-27            	3960668.55      	3686277.74      
 P-27            	3960706.05      	3686115.23      
 P-27            	3960715.42      	3686033.99      
 P-27            	3960696.67      	3685943.35      
 P-27            	3960524.49      	3685456.47      
 P-270           	3962308.95      	3702079.82      
 P-271           	3961846.03      	3694237.91      
 P-271           	3962064.96      	3694287.43      
 P-271           	3962291.27      	3694341.03      
 P-271           	3962327.00      	3694376.76      
 P-271           	3962338.92      	3694421.43      
 P-271           	3962335.95      	3694486.94      
 P-273           	3966167.07      	3701282.66      
 P-274           	3960855.61      	3694971.82      
 P-275           	3962186.26      	3699657.80      
 P-275           	3962149.26      	3699855.91      
 P-275           	3962072.50      	3700249.02      
 P-276           	3971293.17      	3701430.62      
 P-276           	3971097.11      	3701569.12      
 P-276           	3971086.24      	3701576.79      
 P-276           	3971009.73      	3701539.55      
 P-278           	3960236.38      	3693399.59      
 P-278           	3960239.15      	3693286.45      
 P-278           	3960231.20      	3693240.78      
 P-278           	3960197.42      	3693153.36      
 P-278           	3960143.78      	3693030.17      
 P-278           	3960076.94      	3692836.57      
 P-279           	3961926.83      	3699559.51      
 P-279           	3961979.53      	3699537.19      
 P-28            	3966931.61      	3702193.45      
 P-28            	3967077.47      	3702161.62      
 P-28            	3967138.14      	3702135.88      
 P-280           	3955803.77      	3690197.02      
 P-280           	3955832.94      	3690122.00      
 P-280           	3955857.94      	3690005.33      
 P-280           	3955864.19      	3689882.38      
 P-282           	3969284.23      	3702514.21      
 P-282           	3969349.03      	3702468.70      
 P-282           	3969537.66      	3702377.97      
 P-282           	3969619.10      	3702346.53      
 P-282           	3969717.43      	3702308.57      
 P-282           	3969767.00      	3702290.73      
 P-282           	3969907.98      	3702247.53      
 P-282           	3970076.19      	3702217.51      
 P-282           	3970119.48      	3702206.32      
 P-282           	3970250.12      	3702172.58      
 P-282           	3970275.02      	3702151.15      
 P-282           	3970301.37      	3702038.38      
 P-282           	3970319.02      	3701953.58      
 P-282           	3970325.66      	3701921.68      
 P-283           	3970399.68      	3701566.06      
 P-283           	3970329.97      	3701465.88      
 P-284           	3961126.30      	3707675.33      
 P-284           	3960578.49      	3707517.26      
 P-284           	3960621.79      	3708175.50      
 P-284           	3960723.02      	3709286.56      
 P-284           	3960760.91      	3709841.74      
 P-284           	3960737.24      	3710112.40      
 P-284           	3960683.08      	3710291.72      
 P-284           	3960584.99      	3710481.18      
 P-284           	3960432.73      	3710640.19      
 P-285           	3966557.61      	3705371.78      
 P-286           	3960743.62      	3700075.87      
 P-287           	3963062.50      	3696600.90      
 P-287           	3963054.17      	3696599.57      
 P-287           	3963057.71      	3696577.14      
 P-287           	3963072.78      	3696515.06      
 P-287           	3963087.02      	3696412.64      
 P-287           	3963104.84      	3696397.39      
 P-287           	3963118.21      	3696385.95      
 P-288           	3963198.05      	3693408.95      
 P-289           	3960590.97      	3698788.62      
 P-289           	3960538.52      	3698805.73      
 P-289           	3960530.50      	3698802.54      
 P-29            	3966899.52      	3701625.14      
 P-290           	3962023.53      	3700527.05      
 P-290           	3962000.49      	3700643.85      
 P-290           	3962014.64      	3700690.42      
 P-290           	3962117.80      	3701030.41      
 P-291           	3964951.45      	3700822.64      
 P-291           	3964938.58      	3700825.44      
 P-291           	3964841.02      	3700974.19      
 P-291           	3964842.99      	3700992.37      
 P-291           	3964981.30      	3701081.45      
 P-291           	3965002.43      	3701081.80      
 P-291           	3965094.65      	3700938.25      
 P-291           	3965100.25      	3700918.69      
 P-292           	3963391.90      	3699911.69      
 P-292           	3963515.00      	3699940.65      
 P-292           	3963874.57      	3700025.25      
 P-292           	3963923.99      	3700035.89      
 P-293           	3962536.41      	3698411.12      
 P-293           	3962614.91      	3698253.56      
 P-296           	3956981.83      	3690558.45      
 P-296           	3957117.30      	3690289.84      
 P-296           	3957135.15      	3690237.85      
 P-296           	3957156.07      	3690115.89      
 P-296           	3957149.10      	3690018.32      
 P-296           	3957080.98      	3689784.13      
 P-296           	3957023.65      	3689596.67      
 P-296           	3956940.07      	3689323.12      
 P-297           	3965670.02      	3700973.26      
 P-298           	3960120.87      	3691274.95      
 P-298           	3960131.57      	3691273.94      
 P-298           	3960262.55      	3691322.08      
 P-299           	3965947.42      	3702051.49      
 P-299           	3966055.51      	3702030.19      
 P-299           	3966154.82      	3702010.61      
 P-299           	3966504.82      	3701941.65      
 P-299           	3966538.14      	3701935.08      
 P-3             	3931137.12      	3715691.59      
 P-3             	3931099.81      	3715638.75      
 P-3             	3930380.88      	3714206.61      
 P-3             	3930226.71      	3713918.15      
 P-3             	3929877.43      	3713515.69      
 P-3             	3929185.09      	3712456.72      
 P-3             	3929150.99      	3712391.27      
 P-3             	3929069.15      	3712206.35      
 P-3             	3928944.25      	3711833.54      
 P-3             	3928735.64      	3711050.14      
 P-3             	3928519.14      	3710223.44      
 P-3             	3928331.35      	3709352.29      
 P-3             	3928106.71      	3708761.31      
 P-3             	3928096.53      	3708737.64      
 P-3             	3927877.00      	3708329.59      
 P-3             	3927627.04      	3707843.76      
 P-3             	3927561.03      	3707710.65      
 P-30            	3960685.80      	3694253.84      
 P-30            	3960543.49      	3694261.59      
 P-300           	3965975.74      	3702356.99      
 P-300           	3965973.53      	3702340.06      
 P-300           	3965943.17      	3702107.33      
 P-301           	3965930.07      	3701951.89      
 P-301           	3965917.28      	3701844.34      
 P-301           	3965913.73      	3701814.55      
 P-301           	3965911.62      	3701796.78      
 P-301           	3965887.27      	3701797.97      
 P-301           	3965686.63      	3701807.79      
 P-301           	3965664.50      	3701808.87      
 P-302           	3967614.48      	3702758.88      
 P-302           	3967432.89      	3702880.76      
 P-303           	3966035.28      	3709069.77      
 P-303           	3965992.56      	3708991.81      
 P-303           	3965972.18      	3708932.86      
 P-303           	3965963.77      	3708875.41      
 P-303           	3965992.63      	3708739.97      
 P-303           	3966065.09      	3708499.93      
 P-304           	3960716.73      	3698640.65      
 P-304           	3960687.41      	3698296.49      
 P-305           	3962059.92      	3698618.58      
 P-305           	3961847.23      	3698672.72      
 P-305           	3961777.98      	3698698.63      
 P-305           	3961657.49      	3698731.41      
 P-306           	3959396.39      	3690862.68      
 P-306           	3959476.37      	3691242.22      
 P-307           	3967528.45      	3701171.09      
 P-307           	3967514.24      	3701169.95      
 P-308           	3961012.46      	3698721.67      
 P-308           	3961072.06      	3698696.30      
 P-308           	3961202.29      	3698625.68      
 P-308           	3961259.58      	3698568.41      
 P-308           	3961300.49      	3698510.89      
 P-308           	3961305.09      	3698489.12      
 P-308           	3961314.27      	3698445.64      
 P-308           	3961320.79      	3698380.30      
 P-308           	3961334.92      	3698293.26      
 P-308           	3961346.66      	3698240.72      
 P-308           	3961390.05      	3698143.24      
 P-308           	3961426.87      	3698087.14      
 P-309           	3958633.44      	3697997.77      
 P-31            	3972490.72      	3704865.50      
 P-31            	3972701.54      	3704845.65      
 P-31            	3972731.60      	3704856.59      
 P-31            	3972793.66      	3704840.38      
 P-310           	3961460.87      	3698035.28      
 P-311           	3965446.08      	3687210.22      
 P-311           	3965319.79      	3687413.55      
 P-311           	3965185.78      	3687624.90      
 P-312           	3963142.74      	3696341.66      
 P-312           	3963164.61      	3696183.61      
 P-313           	3962614.91      	3698253.56      
 P-314           	3964623.05      	3700309.23      
 P-314           	3964638.71      	3700319.12      
 P-314           	3964809.08      	3700426.72      
 P-314           	3964845.81      	3700451.49      
 P-314           	3965034.30      	3700568.95      
 P-315           	3963190.87      	3698083.22      
 P-316           	3961833.23      	3693935.90      
 P-316           	3961511.08      	3693864.58      
 P-316           	3961436.64      	3693864.58      
 P-316           	3961359.22      	3693921.16      
 P-316           	3961246.12      	3694057.79      
 P-317           	3959225.94      	3690642.06      
 P-317           	3959291.33      	3690623.51      
 P-319           	3967956.81      	3699321.38      
 P-32            	3966556.90      	3701901.19      
 P-320           	3967716.34      	3701043.63      
 P-320           	3967694.06      	3701058.74      
 P-322           	3965789.04      	3686658.14      
 P-322           	3965685.35      	3686825.04      
 P-323           	3972715.45      	3704553.44      
 P-323           	3972700.15      	3704507.30      
 P-323           	3972605.91      	3704245.54      
 P-324           	3965045.10      	3702970.80      
 P-324           	3965039.03      	3702958.58      
 P-324           	3965098.66      	3702916.35      
 P-324           	3965273.67      	3702802.49      
 P-324           	3965377.74      	3702734.37      
 P-324           	3965416.31      	3702711.75      
 P-324           	3965487.88      	3702667.04      
 P-324           	3965516.12      	3702649.40      
 P-325           	3961756.23      	3693533.73      
 P-325           	3961766.93      	3693559.46      
 P-325           	3961810.30      	3693630.53      
 P-325           	3961861.46      	3693662.11      
 P-325           	3961916.66      	3693681.03      
 P-327           	3971408.29      	3703962.80      
 P-328           	3960474.43      	3699686.76      
 P-328           	3960422.97      	3699552.07      
 P-328           	3960362.78      	3699396.66      
 P-328           	3960344.05      	3699348.01      
 P-329           	3967769.03      	3699554.77      
 P-329           	3968002.57      	3699611.21      
 P-329           	3968042.02      	3699620.74      
 P-329           	3968056.39      	3699624.21      
 P-33            	3965984.03      	3702354.47      
 P-330           	3967490.59      	3704709.09      
 P-331           	3966944.92      	3705604.15      
 P-331           	3967027.61      	3705471.58      
 P-332           	3965971.66      	3704081.38      
 P-332           	3966023.92      	3704082.01      
 P-332           	3966123.89      	3704082.64      
 P-332           	3966143.20      	3704069.72      
 P-333           	3958263.59      	3693338.69      
 P-335           	3966724.00      	3705946.77      
 P-335           	3966876.53      	3705711.60      
 P-335           	3966913.12      	3705655.18      
 P-335           	3966920.59      	3705643.18      
 P-336           	3959579.35      	3692141.05      
 P-337           	3965235.91      	3700696.08      
 P-337           	3965260.82      	3700711.78      
 P-337           	3965263.81      	3700713.67      
 P-338           	3968450.21      	3703488.34      
 P-339           	3962366.52      	3698391.21      
 P-339           	3962508.28      	3698395.30      
 P-339           	3962530.88      	3698402.94      
 P-34            	3960424.64      	3698511.15      
 P-34            	3960394.88      	3698484.80      
 P-340           	3960751.00      	3700113.96      
 P-340           	3960753.75      	3700122.30      
 P-340           	3960727.98      	3700130.42      
 P-340           	3960592.74      	3700189.73      
 P-340           	3960554.09      	3700206.68      
 P-340           	3960532.08      	3700216.33      
 P-340           	3960538.94      	3700232.13      
 P-341           	3968918.11      	3703613.45      
 P-341           	3968910.84      	3703544.33      
 P-341           	3968910.46      	3703540.69      
 P-342           	3963970.51      	3693267.94      
 P-342           	3964441.38      	3693398.36      
 P-343           	3968617.83      	3705200.28      
 P-344           	3959695.75      	3693433.46      
 P-344           	3959843.20      	3693409.89      
 P-345           	3971371.51      	3705561.91      
 P-345           	3971445.06      	3705641.37      
 P-345           	3971394.25      	3705686.43      
 P-346           	3966402.06      	3706954.67      
 P-346           	3966448.82      	3706685.08      
 P-346           	3966458.28      	3706666.82      
 P-346           	3966483.89      	3706617.39      
 P-346           	3966703.78      	3706192.75      
 P-346           	3966654.51      	3706109.72      
 P-346           	3966647.44      	3706105.93      
 P-347           	3968921.12      	3704574.41      
 P-348           	3968770.27      	3704566.18      
 P-348           	3968724.88      	3704768.09      
 P-349           	3963918.99      	3696912.15      
 P-349           	3963914.25      	3696947.53      
 P-35            	3964492.89      	3705432.73      
 P-35            	3964276.79      	3705435.52      
 P-350           	3967556.41      	3707304.10      
 P-350           	3967555.62      	3707311.57      
 P-350           	3967563.45      	3707329.33      
 P-352           	3963545.85      	3695570.62      
 P-352           	3963703.06      	3695464.30      
 P-352           	3963854.60      	3695486.99      
 P-352           	3963945.16      	3695500.54      
 P-352           	3964313.31      	3695589.47      
 P-353           	3963437.48      	3695503.83      
 P-354           	3963586.37      	3696630.88      
 P-354           	3963601.14      	3696674.79      
 P-354           	3963725.82      	3696806.38      
 P-354           	3963824.85      	3696867.13      
 P-355           	3968523.13      	3703610.35      
 P-355           	3968584.00      	3703649.78      
 P-355           	3968644.25      	3703659.54      
 P-355           	3968703.60      	3703657.19      
 P-355           	3968760.42      	3703744.89      
 P-355           	3968914.82      	3703705.63      
 P-356           	3963543.82      	3695602.85      
 P-356           	3963525.39      	3695589.71      
 P-357           	3964379.47      	3697154.27      
 P-357           	3964378.40      	3697059.54      
 P-358           	3963889.40      	3697954.15      
 P-358           	3963906.98      	3697967.47      
 P-358           	3963927.43      	3697939.18      
 P-359           	3968956.36      	3703608.07      
 P-359           	3969012.13      	3703597.35      
 P-359           	3969127.58      	3703589.33      
 P-359           	3969218.52      	3703603.96      
 P-359           	3969305.67      	3703648.21      
 P-359           	3969359.52      	3703684.49      
 P-359           	3969457.26      	3703751.14      
 P-359           	3969618.23      	3703850.39      
 P-359           	3969774.21      	3703979.19      
 P-359           	3969850.08      	3704050.74      
 P-359           	3969964.08      	3704166.04      
 P-36            	3966562.74      	3702858.86      
 P-360           	3967645.11      	3700126.66      
 P-360           	3967702.03      	3699849.66      
 P-361           	3959355.36      	3697154.36      
 P-362           	3960677.76      	3699240.69      
 P-363           	3964809.65      	3687358.79      
 P-364           	3967283.86      	3701302.06      
 P-364           	3967079.77      	3701435.80      
 P-364           	3967001.98      	3701486.75      
 P-364           	3966895.42      	3701563.05      
 P-364           	3966883.22      	3701596.07      
 P-364           	3966871.10      	3701619.21      
 P-364           	3966532.04      	3701845.86      
 P-364           	3966590.13      	3701932.59      
 P-364           	3966579.26      	3701934.85      
 P-364           	3966549.74      	3701940.94      
 P-364           	3966175.78      	3702018.09      
 P-364           	3966154.82      	3702010.61      
 P-364           	3966142.81      	3702006.34      
 P-364           	3966132.01      	3702008.37      
 P-365           	3958709.21      	3697230.84      
 P-366           	3965131.89      	3699636.86      
 P-367           	3965618.86      	3704088.19      
 P-367           	3965698.63      	3704086.36      
 P-367           	3965712.86      	3704086.04      
 P-367           	3965727.71      	3704085.58      
 P-367           	3965925.81      	3704079.39      
 P-368           	3966785.67      	3699838.58      
 P-368           	3966826.79      	3699868.09      
 P-368           	3966997.39      	3699940.37      
 P-369           	3971547.04      	3704516.04      
 P-369           	3971238.85      	3704159.97      
 P-37            	3967885.23      	3705002.91      
 P-37            	3967980.93      	3704849.08      
 P-370           	3964227.13      	3691809.65      
 P-370           	3964186.25      	3691782.71      
 P-370           	3964324.86      	3691569.04      
 P-370           	3964450.28      	3691360.76      
 P-370           	3964629.21      	3691089.54      
 P-371           	3961483.69      	3698008.15      
 P-371           	3961525.75      	3697958.14      
 P-371           	3961640.47      	3697834.53      
 P-371           	3961701.26      	3697729.15      
 P-372           	3964374.34      	3696816.81      
 P-373           	3965896.84      	3700199.82      
 P-373           	3966091.79      	3700354.37      
 P-373           	3966143.58      	3700398.03      
 P-374           	3959858.86      	3697768.90      
 P-374           	3960286.66      	3696618.14      
 P-375           	3963639.21      	3693987.37      
 P-375           	3963955.79      	3694045.43      
 P-376           	3964090.83      	3696328.51      
 P-376           	3964344.31      	3696375.46      
 P-378           	3962672.47      	3694117.17      
 P-379           	3966776.05      	3704234.09      
 P-379           	3966883.11      	3704071.35      
 P-379           	3966898.84      	3704044.93      
 P-379           	3966806.69      	3703999.98      
 P-379           	3966892.64      	3703815.66      
 P-379           	3966908.36      	3703697.37      
 P-379           	3966904.03      	3703608.86      
 P-38            	3966064.74      	3701635.38      
 P-380           	3967193.34      	3700024.29      
 P-380           	3967426.74      	3700134.36      
 P-380           	3967597.18      	3700209.39      
 P-380           	3967610.74      	3700215.35      
 P-381           	3957170.21      	3692762.71      
 P-381           	3957198.40      	3692780.46      
 P-381           	3957375.71      	3692892.05      
 P-381           	3957396.27      	3692856.02      
 P-382           	3968093.44      	3703417.82      
 P-382           	3968115.78      	3703402.70      
 P-383           	3955795.52      	3689179.55      
 P-384           	3963254.21      	3693799.75      
 P-384           	3963307.32      	3693550.97      
 P-385           	3969105.85      	3704652.39      
 P-385           	3969041.32      	3704930.32      
 P-385           	3969034.86      	3704958.16      
 P-386           	3959309.89      	3695227.55      
 P-387           	3969081.75      	3704638.08      
 P-387           	3969065.80      	3704634.39      
 P-387           	3968770.27      	3704566.18      
 P-387           	3968761.41      	3704564.13      
 P-388           	3966527.16      	3699732.09      
 P-388           	3966764.11      	3699823.13      
 P-39            	3960792.25      	3694221.59      
 P-39            	3960791.98      	3694214.51      
 P-39            	3960787.79      	3694134.15      
 P-390           	3965413.62      	3686339.05      
 P-390           	3965385.10      	3686321.55      
 P-390           	3965090.43      	3686140.75      
 P-390           	3965006.53      	3686076.98      
 P-391           	3967006.91      	3700830.54      
 P-391           	3967061.35      	3700908.28      
 P-391           	3967164.86      	3701070.96      
 P-391           	3967221.25      	3701156.70      
 P-391           	3967233.73      	3701175.43      
 P-391           	3967314.60      	3701296.86      
 P-392           	3966045.54      	3686691.56      
 P-392           	3966126.13      	3686736.95      
 P-392           	3966220.94      	3686799.22      
 P-392           	3966285.21      	3686849.05      
 P-392           	3966329.14      	3686899.02      
 P-392           	3966354.93      	3686980.76      
 P-392           	3966368.31      	3687065.76      
 P-392           	3966359.39      	3687153.45      
 P-392           	3966382.89      	3687181.37      
 P-392           	3966446.55      	3687213.13      
 P-392           	3966653.57      	3687274.39      
 P-394           	3959338.82      	3695235.60      
 P-394           	3959391.99      	3695192.93      
 P-394           	3959328.65      	3695131.75      
 P-394           	3959395.30      	3695074.10      
 P-394           	3959350.69      	3695017.91      
 P-394           	3959307.57      	3694963.60      
 P-394           	3959300.60      	3694962.08      
 P-394           	3958901.16      	3694655.73      
 P-394           	3958797.69      	3694576.37      
 P-394           	3958791.92      	3694587.46      
 P-394           	3958716.05      	3694521.91      
 P-395           	3966777.52      	3699810.76      
 P-396           	3966287.74      	3700470.40      
 P-396           	3966575.27      	3700070.40      
 P-396           	3966552.66      	3700056.15      
 P-396           	3966389.08      	3699952.99      
 P-396           	3966499.90      	3699743.10      
 P-397           	3967859.52      	3700448.44      
 P-398           	3967108.65      	3701444.21      
 P-398           	3967297.89      	3701324.28      
 P-399           	3967336.09      	3701299.34      
 P-399           	3967497.79      	3701188.21      
 P-4             	3966557.80      	3706699.27      
 P-4             	3966680.09      	3706769.27      
 P-4             	3966734.87      	3706806.54      
 P-4             	3966779.80      	3706865.81      
 P-4             	3966818.86      	3706896.50      
 P-40            	3960783.99      	3694067.54      
 P-40            	3960749.07      	3693920.15      
 P-401           	3972762.06      	3704746.53      
 P-401           	3972742.85      	3704750.58      
 P-401           	3972740.17      	3704740.09      
 P-404           	3967497.18      	3700856.36      
 P-404           	3967544.66      	3700530.62      
 P-404           	3967582.29      	3700396.11      
 P-404           	3967603.95      	3700318.69      
 P-405           	3961146.22      	3696375.91      
 P-406           	3960363.38      	3696150.92      
 P-406           	3960558.74      	3696205.01      
 P-406           	3960638.04      	3696083.66      
 P-406           	3960630.71      	3696078.46      
 P-407           	3967855.08      	3704192.29      
 P-407           	3967863.93      	3704179.57      
 P-408           	3966113.37      	3700511.61      
 P-408           	3966153.11      	3700463.85      
 P-408           	3966168.66      	3700437.81      
 P-409           	3966691.87      	3699325.74      
 P-410           	3967276.75      	3711568.30      
 P-410           	3967666.08      	3711540.07      
 P-411           	3962287.40      	3700806.56      
 P-411           	3962363.38      	3700471.82      
 P-412           	3967895.42      	3704187.58      
 P-412           	3967997.81      	3704210.40      
 P-413           	3967506.88      	3701103.32      
 P-413           	3967506.60      	3701098.67      
 P-413           	3967501.24      	3701010.45      
 P-414           	3966371.63      	3700564.91      
 P-414           	3966497.67      	3700664.42      
 P-414           	3966578.54      	3700728.65      
 P-414           	3966612.79      	3700755.85      
 P-414           	3966690.31      	3700841.69      
 P-414           	3966737.26      	3700919.15      
 P-414           	3966751.94      	3700943.38      
 P-415           	3966214.60      	3698876.45      
 P-416           	3962818.41      	3697798.85      
 P-418           	3966534.54      	3699295.11      
 P-419           	3962640.37      	3698198.39      
 P-419           	3962653.93      	3698163.76      
 P-419           	3962723.55      	3698005.76      
 P-419           	3962765.70      	3697918.99      
 P-419           	3962811.58      	3697818.67      
 P-42            	3956650.78      	3690976.58      
 P-42            	3956567.16      	3690987.03      
 P-42            	3956493.98      	3690962.66      
 P-42            	3956389.44      	3690872.05      
 P-42            	3956086.28      	3690589.80      
 P-42            	3955957.35      	3690478.29      
 P-42            	3955851.18      	3690348.65      
 P-421           	3965734.80      	3702496.88      
 P-421           	3965732.05      	3702492.82      
 P-421           	3965721.13      	3702406.40      
 P-421           	3965694.43      	3702176.83      
 P-421           	3965653.16      	3701857.92      
 P-422           	3959135.03      	3697528.05      
 P-423           	3965591.39      	3704096.96      
 P-423           	3965729.41      	3704096.58      
 P-423           	3965740.46      	3704096.54      
 P-424           	3968203.04      	3704490.27      
 P-424           	3968194.52      	3704506.65      
 P-424           	3968180.54      	3704533.51      
 P-424           	3968190.51      	3704535.07      
 P-425           	3964363.93      	3696281.34      
 P-426           	3963438.06      	3695558.25      
 P-427           	3960662.37      	3698057.20      
 P-430           	3964808.89      	3700023.83      
 P-430           	3964636.60      	3699891.63      
 P-430           	3964318.89      	3699641.66      
 P-430           	3964311.34      	3699649.73      
 P-430           	3964299.83      	3699662.04      
 P-431           	3960292.00      	3699797.19      
 P-431           	3960463.20      	3699732.57      
 P-433           	3959702.55      	3690906.08      
 P-434           	3961107.69      	3697806.73      
 P-436           	3960396.35      	3700258.14      
 P-436           	3960300.78      	3700093.78      
 P-437           	3961078.42      	3699981.92      
 P-437           	3961062.84      	3699987.65      
 P-437           	3960812.45      	3700052.20      
 P-438           	3960685.48      	3696011.55      
 P-438           	3960666.77      	3695995.98      
 P-438           	3960654.24      	3696015.11      
 P-439           	3972109.14      	3705126.29      
 P-439           	3972155.95      	3705084.99      
 P-44            	3962339.01      	3701700.47      
 P-44            	3962531.23      	3701749.82      
 P-441           	3971587.26      	3706876.30      
 P-441           	3972143.36      	3707158.68      
 P-441           	3972177.49      	3706984.81      
 P-441           	3972177.79      	3706958.21      
 P-441           	3972152.79      	3706804.22      
 P-441           	3972168.62      	3706752.03      
 P-443           	3972311.40      	3706859.32      
 P-443           	3972452.92      	3707038.06      
 P-444           	3972260.26      	3706759.59      
 P-444           	3972321.26      	3706694.48      
 P-444           	3972498.84      	3706605.66      
 P-445           	3960530.80      	3704691.43      
 P-445           	3960514.69      	3704517.67      
 P-445           	3960436.94      	3704319.58      
 P-446           	3960419.80      	3703898.01      
 P-447           	3971586.94      	3705873.48      
 P-448           	3993861.68      	3687350.71      
 P-448           	3993934.60      	3686998.62      
 P-448           	3994036.67      	3686529.87      
 P-448           	3994151.26      	3685619.46      
 P-448           	3994203.35      	3685196.53      
 P-448           	3994222.09      	3684890.28      
 P-448           	3994226.25      	3684581.96      
 P-448           	3994236.67      	3684427.80      
 P-448           	3994330.43      	3684229.87      
 P-448           	3994363.76      	3684154.88      
 P-448           	3994382.51      	3684059.04      
 P-448           	3994409.60      	3683761.12      
 P-448           	3994459.60      	3683434.05      
 P-448           	3994495.00      	3683109.05      
 P-448           	3994507.50      	3682715.29      
 P-448           	3994507.50      	3682398.63      
 P-448           	3994509.59      	3682092.40      
 P-448           	3994522.09      	3681827.79      
 P-449           	3966541.30      	3708142.74      
 P-449           	3966557.30      	3708082.85      
 P-449           	3966615.93      	3707928.30      
 P-449           	3966649.11      	3707840.83      
 P-45            	3963544.77      	3697759.72      
 P-45            	3963565.94      	3697774.10      
 P-450           	3968018.27      	3711202.51      
 P-451           	3959555.47      	3696441.92      
 P-451           	3958855.79      	3696488.22      
 P-454           	3959127.21      	3697888.18      
 P-456           	3968306.18      	3704941.15      
 P-457           	3971647.76      	3705551.74      
 P-458           	3960215.32      	3693542.74      
 P-458           	3960237.17      	3693707.65      
 P-458           	3960247.09      	3693745.40      
 P-458           	3960261.01      	3693757.32      
 P-458           	3960316.64      	3693751.37      
 P-458           	3960413.98      	3693733.47      
 P-458           	3960457.70      	3693725.56      
 P-459           	3980313.59      	3716366.50      
 P-459           	3980529.20      	3716600.88      
 P-459           	3980757.33      	3716854.01      
 P-459           	3981004.22      	3717135.27      
 P-459           	3981335.45      	3717491.51      
 P-459           	3981566.72      	3717757.14      
 P-459           	3981666.71      	3717850.88      
 P-459           	3982007.31      	3718166.50      
 P-459           	3982194.85      	3718329.01      
 P-459           	3982754.22      	3718860.26      
 P-459           	3983113.59      	3719179.00      
 P-459           	3983576.09      	3719566.51      
 P-459           	3983957.33      	3719897.77      
 P-459           	3984360.46      	3720266.51      
 P-459           	3984741.71      	3720591.51      
 P-459           	3985082.35      	3720850.88      
 P-459           	3985354.20      	3721072.76      
 P-459           	3985635.46      	3721288.37      
 P-459           	3985966.69      	3721522.76      
 P-459           	3986229.21      	3721679.00      
 P-459           	3986969.83      	3722200.89      
 P-459           	3987582.34      	3722616.51      
 P-459           	3988013.56      	3722907.13      
 P-459           	3988457.35      	3723225.89      
 P-459           	3989169.84      	3723738.39      
 P-459           	3989841.72      	3724335.26      
 P-459           	3990454.21      	3724844.63      
 P-459           	3991426.09      	3725700.89      
 P-459           	3992144.84      	3726313.38      
 P-459           	3992722.96      	3726819.63      
 P-459           	3993135.47      	3727200.88      
 P-459           	3993446.67      	3727468.05      
 P-46            	3962703.04      	3700478.78      
 P-46            	3962780.34      	3700216.91      
 P-460           	3966630.54      	3706096.79      
 P-460           	3966667.47      	3706036.22      
 P-462           	3968557.67      	3704856.47      
 P-463           	3962740.98      	3694972.34      
 P-463           	3962529.50      	3694951.49      
 P-463           	3962239.11      	3694950.46      
 P-465           	3966675.68      	3706007.52      
 P-465           	3966664.72      	3706001.26      
 P-465           	3966610.55      	3706081.26      
 P-466           	3960198.82      	3704341.85      
 P-466           	3960189.93      	3704578.68      
 P-466           	3960190.09      	3704593.23      
 P-466           	3960191.40      	3704716.68      
 P-466           	3959968.78      	3704718.61      
 P-466           	3959692.75      	3704723.37      
 P-466           	3959578.56      	3704730.74      
 P-467           	3960410.21      	3704210.61      
 P-467           	3960403.74      	3704210.50      
 P-467           	3960219.82      	3704321.61      
 P-468           	3972226.70      	3706741.32      
 P-469           	3968242.75      	3705220.46      
 P-469           	3968215.39      	3705351.07      
 P-47            	3967030.73      	3711835.07      
 P-470           	3971974.66      	3706427.55      
 P-470           	3971979.36      	3706432.40      
 P-470           	3971989.23      	3706442.59      
 P-470           	3971970.55      	3706453.38      
 P-470           	3972071.76      	3706604.35      
 P-471           	3966088.16      	3700579.30      
 P-471           	3966098.54      	3700582.46      
 P-471           	3966124.01      	3700590.20      
 P-471           	3966173.86      	3700604.81      
 P-471           	3966221.23      	3700636.06      
 P-471           	3966258.56      	3700684.17      
 P-471           	3966325.53      	3700772.01      
 P-471           	3966348.36      	3700809.14      
 P-471           	3966493.42      	3701015.20      
 P-471           	3966531.54      	3701072.31      
 P-472           	3960231.33      	3690918.47      
 P-472           	3960253.20      	3690932.39      
 P-472           	3960426.89      	3691036.91      
 P-472           	3960518.38      	3691049.36      
 P-473           	3960061.99      	3695183.26      
 P-474           	3966663.51      	3699335.20      
 P-474           	3966604.21      	3699319.35      
 P-474           	3966548.04      	3699311.82      
 P-475           	3966942.06      	3699506.81      
 P-475           	3966942.66      	3699476.46      
 P-475           	3966933.08      	3699448.74      
 P-475           	3966880.49      	3699426.40      
 P-475           	3966727.52      	3699367.66      
 P-475           	3966701.11      	3699354.26      
 P-476           	3967256.98      	3705111.02      
 P-479           	3964301.00      	3699634.39      
 P-479           	3964305.76      	3699622.39      
 P-48            	3967170.14      	3702487.22      
 P-480           	3966613.26      	3701052.37      
 P-480           	3966748.42      	3700968.04      
 P-481           	3965172.04      	3699635.45      
 P-481           	3965209.92      	3699666.42      
 P-481           	3965378.81      	3699795.36      
 P-481           	3965408.34      	3699821.17      
 P-482           	3962810.94      	3697806.12      
 P-482           	3962808.36      	3697812.64      
 P-483           	3956804.12      	3690885.99      
 P-483           	3956865.42      	3690773.67      
 P-483           	3956884.25      	3690743.12      
 P-484           	3967547.74      	3701172.63      
 P-485           	3965115.74      	3699591.75      
 P-485           	3964868.46      	3699401.62      
 P-485           	3964648.28      	3699227.62      
 P-486           	3966304.73      	3707435.10      
 P-486           	3966326.60      	3707318.19      
 P-486           	3966315.41      	3707268.70      
 P-486           	3966328.38      	3707207.61      
 P-486           	3966347.36      	3707187.93      
 P-487           	3966244.80      	3700470.38      
 P-487           	3966260.07      	3700481.96      
 P-488           	3963506.92      	3697952.79      
 P-489           	3964812.88      	3700053.40      
 P-49            	3959440.12      	3698134.36      
 P-490           	3960823.15      	3694500.09      
 P-491           	3967982.09      	3710535.58      
 P-491           	3967960.26      	3710312.28      
 P-491           	3967913.06      	3710315.91      
 P-491           	3967793.09      	3710325.14      
 P-491           	3967615.61      	3710334.72      
 P-492           	3967235.28      	3705145.49      
 P-493           	3959284.45      	3695184.17      
 P-493           	3959275.05      	3695158.89      
 P-493           	3959375.64      	3695079.38      
 P-493           	3959308.58      	3694987.40      
 P-493           	3959276.49      	3694982.67      
 P-493           	3959087.14      	3694841.17      
 P-493           	3958830.35      	3694632.84      
 P-494           	3966728.52      	3705950.17      
 P-495           	3958016.07      	3693953.99      
 P-496           	3967048.11      	3712110.04      
 P-497           	3969012.48      	3704998.53      
 P-498           	3958362.37      	3694250.48      
 P-499           	3968938.69      	3702045.31      
 P-499           	3969184.27      	3701880.55      
 P-499           	3969370.84      	3701756.32      
 P-5             	3966464.69      	3706721.69      
 P-50            	3967875.38      	3699285.11      
 P-500           	3959135.49      	3696166.38      
 P-501           	3994768.97      	3688184.54      
 P-501           	3994412.72      	3687906.44      
 P-501           	3994165.85      	3687725.19      
 P-501           	3993940.85      	3687534.56      
 P-502           	3957070.28      	3691090.71      
 P-503           	3964399.57      	3692840.20      
 P-503           	3964360.86      	3692974.21      
 P-503           	3964337.05      	3693126.08      
 P-503           	3964310.25      	3693179.67      
 P-503           	3964268.56      	3693197.55      
 P-503           	3964197.09      	3693185.62      
 P-503           	3964057.13      	3693135.01      
 P-503           	3963991.61      	3693117.15      
 P-504           	3965690.11      	3703197.90      
 P-504           	3965705.02      	3703195.23      
 P-504           	3965804.96      	3703154.69      
 P-504           	3965952.97      	3703095.25      
 P-505           	3966152.22      	3688529.66      
 P-506           	3971689.05      	3703054.47      
 P-508           	3964763.69      	3704977.85      
 P-508           	3964863.02      	3704942.92      
 P-509           	3994991.90      	3688343.93      
 P-509           	3995245.00      	3688159.56      
 P-509           	3995435.63      	3687981.44      
 P-509           	3995685.63      	3687737.70      
 P-509           	3996129.38      	3687322.07      
 P-509           	3996351.26      	3687115.82      
 P-509           	3996445.00      	3687100.19      
 P-509           	3996723.14      	3687115.82      
 P-509           	3997232.52      	3687153.31      
 P-509           	3997566.89      	3687172.06      
 P-509           	3997798.14      	3687190.83      
 P-509           	3997948.13      	3687165.81      
 P-509           	3998279.39      	3687068.93      
 P-509           	3998626.26      	3686968.94      
 P-509           	3998885.63      	3686928.31      
 P-509           	3999413.76      	3686893.94      
 P-509           	3999941.88      	3686875.19      
 P-509           	4000313.76      	3686868.94      
 P-509           	4000601.26      	3686856.44      
 P-509           	4000738.75      	3686843.94      
 P-509           	4000960.63      	3686759.56      
 P-509           	4001798.14      	3686422.06      
 P-509           	4002035.64      	3686312.68      
 P-509           	4002120.01      	3686268.93      
 P-509           	4002182.52      	3686259.56      
 P-509           	4002160.63      	3685865.82      
 P-509           	4002135.63      	3685412.69      
 P-509           	4002129.38      	3685115.82      
 P-509           	4002179.38      	3684700.19      
 P-509           	4002213.12      	3684496.54      
 P-509           	4002213.50      	3684494.24      
 P-509           	4002266.89      	3684172.06      
 P-509           	4002295.01      	3683962.69      
 P-51            	3960200.14      	3700367.38      
 P-51            	3960094.05      	3700406.28      
 P-510           	3964237.04      	3705347.62      
 P-512           	3967716.62      	3712035.99      
 P-512           	3968140.04      	3712032.41      
 P-513           	3969415.83      	3706665.21      
 P-513           	3969475.50      	3706595.63      
 P-513           	3969546.41      	3706526.96      
 P-513           	3969647.07      	3706450.31      
 P-514           	3963092.51      	3700456.49      
 P-514           	3963122.71      	3700325.49      
 P-514           	3963126.47      	3700310.76      
 P-514           	3963135.89      	3700273.97      
 P-514           	3963182.24      	3700078.93      
 P-516           	3967203.80      	3702087.73      
 P-517           	3962148.31      	3701272.65      
 P-517           	3962147.76      	3701245.97      
 P-517           	3962127.79      	3701070.98      
 P-517           	3962097.00      	3701047.96      
 P-517           	3962056.20      	3700998.79      
 P-517           	3962034.33      	3700958.59      
 P-517           	3962035.00      	3700917.01      
 P-517           	3962007.03      	3700835.04      
 P-517           	3962006.13      	3700772.74      
 P-517           	3962014.64      	3700690.42      
 P-517           	3962022.55      	3700613.63      
 P-517           	3962042.35      	3700518.28      
 P-52            	3969054.61      	3702251.49      
 P-52            	3969062.89      	3702263.97      
 P-52            	3969078.07      	3702286.84      
 P-52            	3969213.21      	3702490.49      
 P-52            	3969220.32      	3702501.21      
 P-52            	3969227.64      	3702511.70      
 P-520           	3959724.35      	3696203.06      
 P-521           	3965585.90      	3687906.88      
 P-521           	3965704.84      	3687699.59      
 P-522           	3967913.28      	3704129.05      
 P-522           	3968040.01      	3704180.56      
 P-524           	3964767.44      	3705083.55      
 P-524           	3964746.83      	3705015.92      
 P-525           	3968059.24      	3700786.57      
 P-526           	3963203.61      	3699870.41      
 P-527           	3963039.91      	3700719.11      
 P-528           	3957123.05      	3692733.02      
 P-528           	3957135.29      	3692740.73      
 P-529           	3957028.20      	3692908.20      
 P-530           	3965247.68      	3687704.73      
 P-531           	3965648.66      	3703201.23      
 P-531           	3965350.99      	3703176.83      
 P-531           	3965328.72      	3703175.01      
 P-531           	3965158.76      	3703155.67      
 P-531           	3965053.45      	3703145.67      
 P-531           	3965027.70      	3703147.75      
 P-532           	3958624.41      	3695229.88      
 P-532           	3958621.57      	3695198.01      
 P-532           	3958618.78      	3695166.79      
 P-532           	3958639.83      	3695169.32      
 P-532           	3959039.79      	3695217.42      
 P-533           	3965803.85      	3704658.19      
 P-533           	3965802.53      	3704645.15      
 P-533           	3965797.50      	3704595.61      
 P-533           	3965794.87      	3704569.69      
 P-533           	3965787.38      	3704495.97      
 P-533           	3965755.08      	3704263.53      
 P-533           	3965729.41      	3704096.58      
 P-533           	3965727.71      	3704085.58      
 P-533           	3965723.49      	3704058.13      
 P-533           	3965678.79      	3703774.58      
 P-533           	3965676.29      	3703752.18      
 P-533           	3965667.05      	3703458.53      
 P-533           	3965667.03      	3703445.80      
 P-533           	3965664.47      	3703217.78      
 P-534           	3958685.68      	3695873.75      
 P-535           	3958137.72      	3693030.99      
 P-536           	3968810.96      	3708269.78      
 P-537           	3962945.07      	3697139.66      
 P-538           	3963594.30      	3697761.40      
 P-538           	3963602.06      	3697748.57      
 P-539           	3958005.93      	3693129.10      
 P-539           	3958036.91      	3693151.38      
 P-539           	3958034.56      	3693166.07      
 P-539           	3958094.95      	3693204.90      
 P-539           	3958107.76      	3693192.49      
 P-539           	3958173.80      	3693247.25      
 P-54            	3965119.06      	3704420.52      
 P-54            	3965113.26      	3704368.16      
 P-54            	3965082.68      	3704146.51      
 P-54            	3965078.51      	3704116.31      
 P-54            	3965076.23      	3704099.76      
 P-540           	3966868.64      	3701583.58      
 P-541           	3967059.58      	3701863.30      
 P-541           	3967183.77      	3702056.85      
 P-544           	3968859.08      	3701981.38      
 P-544           	3968730.83      	3701783.95      
 P-546           	3966008.64      	3704439.29      
 P-546           	3965984.35      	3704231.42      
 P-546           	3965965.40      	3704097.15      
 P-546           	3965964.41      	3704090.08      
 P-547           	3966068.91      	3688265.39      
 P-548           	3962876.53      	3695441.70      
 P-548           	3963089.25      	3695453.86      
 P-549           	3967898.77      	3701636.99      
 P-549           	3967920.86      	3701604.70      
 P-55            	3964984.33      	3703260.84      
 P-55            	3965001.82      	3703153.99      
 P-550           	3965184.27      	3704664.37      
 P-550           	3965203.88      	3704664.21      
 P-550           	3965433.16      	3704662.50      
 P-551           	3962750.14      	3697693.70      
 P-551           	3962840.22      	3697731.02      
 P-551           	3962808.71      	3697791.06      
 P-551           	3962804.56      	3697798.95      
 P-551           	3962804.88      	3697806.94      
 P-551           	3962805.03      	3697810.72      
 P-551           	3962805.19      	3697812.56      
 P-551           	3962805.76      	3697814.07      
 P-553           	3971767.46      	3704788.15      
 P-553           	3971710.01      	3704703.80      
 P-554           	3962294.56      	3698406.59      
 P-554           	3962290.51      	3698397.74      
 P-554           	3962008.98      	3698435.92      
 P-555           	3968381.27      	3704564.91      
 P-556           	3960570.08      	3705893.56      
 P-556           	3960551.88      	3705702.94      
 P-556           	3960529.05      	3705468.87      
 P-556           	3960524.20      	3705415.59      
 P-556           	3960555.33      	3705370.49      
 P-556           	3960576.65      	3705344.23      
 P-557           	3966257.38      	3707615.95      
 P-558           	3958687.08      	3697772.94      
 P-558           	3958719.11      	3697611.01      
 P-559           	3967046.93      	3699934.73      
 P-559           	3967108.25      	3699800.02      
 P-559           	3967237.08      	3699524.90      
 P-56            	3960523.21      	3694596.87      
 P-56            	3960321.64      	3694547.27      
 P-56            	3960234.10      	3694534.53      
 P-56            	3960157.70      	3694537.71      
 P-56            	3960109.93      	3694558.43      
 P-56            	3960046.26      	3694626.85      
 P-56            	3959794.59      	3694908.44      
 P-560           	3964842.75      	3705341.36      
 P-561           	3964268.70      	3697739.20      
 P-561           	3964461.36      	3698067.55      
 P-561           	3964539.24      	3698033.08      
 P-561           	3964784.05      	3697924.71      
 P-561           	3964806.43      	3697914.81      
 P-561           	3965128.86      	3698189.56      
 P-561           	3965250.36      	3698422.78      
 P-562           	3971443.60      	3700349.99      
 P-562           	3971420.41      	3700423.93      
 P-562           	3971379.49      	3700467.87      
 P-562           	3971283.28      	3700526.35      
 P-562           	3971221.62      	3700560.06      
 P-563           	3960998.07      	3697384.34      
 P-563           	3961275.61      	3697000.54      
 P-563           	3961366.64      	3696964.43      
 P-563           	3961436.60      	3696854.23      
 P-563           	3961410.46      	3696749.44      
 P-563           	3961250.83      	3696616.74      
 P-563           	3961090.18      	3696483.18      
 P-564           	3967993.54      	3699329.52      
 P-565           	3965992.45      	3687244.63      
 P-565           	3966016.58      	3687254.78      
 P-565           	3966056.13      	3687269.21      
 P-565           	3966136.51      	3687272.31      
 P-565           	3966199.12      	3687257.95      
 P-565           	3966259.35      	3687220.06      
 P-565           	3966302.52      	3687177.38      
 P-565           	3966318.30      	3687151.43      
 P-565           	3966327.07      	3687110.90      
 P-566           	3959100.74      	3695224.76      
 P-566           	3959173.60      	3695232.16      
 P-566           	3959227.73      	3695225.33      
 P-566           	3959274.09      	3695221.86      
 P-566           	3959276.53      	3695221.67      
 P-567           	3962995.83      	3697164.93      
 P-567           	3963123.54      	3697264.57      
 P-567           	3963201.24      	3697323.97      
 P-567           	3963529.09      	3697578.41      
 P-568           	3960022.52      	3696174.35      
 P-568           	3960125.06      	3696122.40      
 P-569           	3967650.32      	3700196.04      
 P-569           	3967691.68      	3700247.55      
 P-57            	3971863.04      	3705726.69      
 P-570           	3965704.57      	3700995.29      
 P-570           	3965825.11      	3701072.19      
 P-570           	3966087.77      	3701242.26      
 P-570           	3966111.50      	3701259.73      
 P-570           	3966132.23      	3701276.58      
 P-571           	3965417.26      	3704080.10      
 P-572           	3959105.44      	3691072.95      
 P-572           	3959159.75      	3691352.93      
 P-572           	3959135.34      	3691419.17      
 P-572           	3959076.11      	3691523.69      
 P-572           	3959034.30      	3691603.83      
 P-572           	3959322.14      	3691791.34      
 P-572           	3959626.69      	3692053.35      
 P-573           	3962325.90      	3699662.42      
 P-573           	3962234.73      	3699642.16      
 P-574           	3967304.94      	3701303.11      
 P-577           	3965964.41      	3704090.08      
 P-578           	3965690.24      	3687061.39      
 P-579           	3968493.76      	3703078.55      
 P-579           	3968518.11      	3703062.35      
 P-579           	3968562.96      	3703032.58      
 P-579           	3968785.77      	3702873.19      
 P-579           	3968793.44      	3702867.13      
 P-579           	3968894.88      	3702787.00      
 P-579           	3968937.04      	3702752.21      
 P-579           	3969215.74      	3702562.03      
 P-579           	3969230.41      	3702552.02      
 P-58            	3960317.51      	3700281.90      
 P-58            	3960223.76      	3700328.77      
 P-58            	3960101.88      	3700313.15      
 P-58            	3959986.26      	3700322.52      
 P-58            	3959742.51      	3700372.52      
 P-58            	3959664.37      	3700422.53      
 P-58            	3959314.38      	3700350.64      
 P-58            	3958914.39      	3700250.65      
 P-58            	3958626.88      	3700178.78      
 P-58            	3958326.88      	3700100.64      
 P-58            	3958133.13      	3700075.65      
 P-58            	3957905.02      	3700088.14      
 P-58            	3957620.63      	3700125.64      
 P-58            	3957283.13      	3700125.64      
 P-580           	3963764.22      	3696564.71      
 P-580           	3963999.81      	3696612.47      
 P-581           	3966694.09      	3702234.90      
 P-581           	3966741.46      	3702227.12      
 P-582           	3967315.87      	3701312.88      
 P-583           	3966776.15      	3700950.73      
 P-583           	3966808.83      	3700930.34      
 P-584           	3966991.40      	3711334.39      
 P-584           	3966979.39      	3711055.89      
 P-584           	3966994.71      	3711000.47      
 P-585           	3968219.39      	3711509.37      
 P-586           	3959058.78      	3695237.18      
 P-586           	3959063.70      	3695233.02      
 P-587           	3964913.04      	3704914.81      
 P-588           	3966490.82      	3687801.28      
 P-589           	3965072.64      	3704087.33      
 P-589           	3965080.26      	3704087.14      
 P-589           	3965184.48      	3704084.44      
 P-59            	3967770.47      	3699505.66      
 P-59            	3967816.80      	3699319.97      
 P-59            	3967824.15      	3699290.53      
 P-590           	3969065.57      	3708403.44      
 P-590           	3969194.53      	3708344.44      
 P-591           	3969206.30      	3708360.85      
 P-591           	3969154.12      	3708638.52      
 P-591           	3969132.40      	3708746.84      
 P-591           	3969091.93      	3708927.96      
 P-592           	3964171.63      	3697509.44      
 P-592           	3964344.96      	3697503.95      
 P-592           	3964365.08      	3697503.31      
 P-593           	3963387.69      	3695849.59      
 P-593           	3963377.06      	3695893.59      
 P-594           	3967754.57      	3701966.75      
 P-594           	3967805.84      	3702047.53      
 P-594           	3967937.93      	3702242.72      
 P-594           	3967970.06      	3702293.37      
 P-595           	3960596.24      	3693656.42      
 P-595           	3960563.36      	3693563.91      
 P-596           	3968275.89      	3703226.42      
 P-596           	3968295.75      	3703217.18      
 P-596           	3968474.99      	3703091.18      
 P-597           	3969082.37      	3708972.46      
 P-599           	3964367.23      	3696034.52      
 P-6             	3972851.21      	3704538.89      
 P-6             	3972898.14      	3704550.20      
 P-6             	3973110.61      	3704522.06      
 P-6             	3973170.00      	3704531.43      
 P-6             	3973210.64      	3704590.82      
 P-6             	3973276.26      	3704581.43      
 P-6             	3973279.38      	3704775.19      
 P-6             	3973338.76      	3704868.93      
 P-6             	3973863.77      	3704837.68      
 P-6             	3974391.88      	3704812.70      
 P-6             	3974854.36      	3704793.95      
 P-6             	3975523.14      	3704772.06      
 P-6             	3976070.01      	3704728.31      
 P-6             	3976570.01      	3704687.69      
 P-6             	3977126.27      	3704640.82      
 P-6             	3977585.63      	3704606.43      
 P-6             	3977985.64      	3704568.93      
 P-6             	3978195.00      	3704468.94      
 P-6             	3978491.89      	3704228.31      
 P-6             	3978973.14      	3703834.57      
 P-6             	3979426.25      	3703500.19      
 P-6             	3979670.00      	3703318.93      
 P-6             	3979904.38      	3703225.19      
 P-6             	3980610.63      	3702962.69      
 P-6             	3981401.27      	3702643.94      
 P-6             	3981951.25      	3702422.07      
 P-6             	3982110.63      	3702347.07      
 P-6             	3982282.51      	3702253.31      
 P-60            	3960502.99      	3694257.70      
 P-60            	3960474.13      	3694254.92      
 P-60            	3960471.79      	3694254.69      
 P-60            	3960319.72      	3694244.36      
 P-60            	3960244.12      	3694213.79      
 P-60            	3960187.13      	3694168.67      
 P-60            	3960121.49      	3694102.00      
 P-60            	3960074.67      	3694032.16      
 P-60            	3960062.50      	3694007.55      
 P-60            	3960025.98      	3693933.73      
 P-600           	3967219.80      	3702112.12      
 P-600           	3967313.90      	3702253.15      
 P-601           	3963667.57      	3697431.98      
 P-602           	3963534.70      	3697610.34      
 P-603           	3964369.46      	3696565.65      
 P-604           	3960623.27      	3699670.79      
 P-604           	3960639.79      	3699670.91      
 P-606           	3966833.31      	3704933.46      
 P-606           	3966740.18      	3705086.04      
 P-607           	3964605.13      	3699250.63      
 P-607           	3964621.38      	3699230.40      
 P-608           	3965803.85      	3704658.19      
 P-608           	3965866.08      	3704659.75      
 P-608           	3966026.61      	3704654.14      
 P-608           	3966025.22      	3704643.58      
 P-608           	3966005.65      	3704495.41      
 P-608           	3965991.07      	3704385.85      
 P-608           	3965970.71      	3704190.35      
 P-609           	3969067.93      	3702238.18      
 P-609           	3969195.43      	3702158.45      
 P-609           	3969343.02      	3702074.41      
 P-609           	3969339.24      	3702067.17      
 P-609           	3969336.59      	3702062.12      
 P-609           	3969454.00      	3701993.10      
 P-609           	3969558.93      	3701944.92      
 P-609           	3969672.37      	3701917.94      
 P-609           	3969803.22      	3701910.08      
 P-609           	3970178.44      	3701898.93      
 P-609           	3970297.03      	3701896.40      
 P-609           	3970303.50      	3701837.79      
 P-609           	3970316.11      	3701742.70      
 P-609           	3970308.67      	3701723.76      
 P-609           	3970286.80      	3701705.69      
 P-609           	3970245.92      	3701698.37      
 P-609           	3970122.28      	3701670.90      
 P-609           	3970012.85      	3701654.74      
 P-609           	3969899.92      	3701649.61      
 P-609           	3969729.29      	3701651.29      
 P-61            	3960531.18      	3694178.10      
 P-61            	3960515.92      	3694100.29      
 P-61            	3960491.35      	3694020.92      
 P-61            	3960453.69      	3693951.38      
 P-610           	3965982.25      	3704076.35      
 P-610           	3965984.07      	3704059.58      
 P-610           	3966000.07      	3703813.84      
 P-610           	3966006.85      	3703718.28      
 P-611           	3967456.81      	3712471.64      
 P-611           	3967166.01      	3712486.78      
 P-612           	3965042.96      	3703935.61      
 P-612           	3965033.67      	3703855.77      
 P-612           	3965037.47      	3703838.77      
 P-612           	3965042.51      	3703816.25      
 P-612           	3965024.22      	3703623.42      
 P-612           	3965019.99      	3703578.89      
 P-612           	3964997.08      	3703473.20      
 P-612           	3964987.52      	3703355.63      
 P-613           	3965872.10      	3704666.99      
 P-613           	3966015.23      	3704662.14      
 P-613           	3966034.70      	3704659.40      
 P-614           	3967848.00      	3699275.42      
 P-614           	3967962.69      	3698929.44      
 P-614           	3968093.95      	3698457.58      
 P-614           	3968168.95      	3698185.69      
 P-614           	3968481.44      	3697229.45      
 P-614           	3968593.95      	3696870.07      
 P-614           	3968643.95      	3696704.46      
 P-614           	3968550.19      	3696679.44      
 P-614           	3968568.95      	3696579.45      
 P-614           	3968562.70      	3696410.69      
 P-614           	3968515.83      	3696245.08      
 P-614           	3968459.57      	3696079.45      
 P-614           	3968397.07      	3695870.07      
 P-614           	3968378.32      	3695710.70      
 P-614           	3968403.32      	3695535.70      
 P-614           	3968475.19      	3695326.32      
 P-614           	3968581.45      	3695132.57      
 P-614           	3968850.20      	3694651.33      
 P-615           	3970355.22      	3701898.77      
 P-615           	3970457.93      	3701905.23      
 P-615           	3970652.50      	3701943.01      
 P-615           	3970875.48      	3702008.95      
 P-618           	3965936.57      	3704082.08      
 P-618           	3965938.88      	3704082.00      
 P-619           	3967617.16      	3700187.05      
 P-619           	3967664.42      	3699978.73      
 P-619           	3967709.94      	3699774.25      
 P-619           	3967704.32      	3699754.90      
 P-619           	3967760.80      	3699543.12      
 P-62            	3962574.57      	3694625.32      
 P-620           	3959602.52      	3693422.42      
 P-621           	3967224.84      	3702086.15      
 P-622           	3965963.47      	3702040.04      
 P-622           	3966091.34      	3702016.01      
 P-623           	3967620.33      	3700200.31      
 P-624           	3970536.54      	3703774.64      
 P-624           	3970538.53      	3703754.69      
 P-624           	3970489.34      	3703538.43      
 P-624           	3970519.31      	3703460.69      
 P-624           	3970556.08      	3703407.82      
 P-624           	3970782.26      	3703337.71      
 P-626           	3959618.03      	3692189.13      
 P-626           	3959643.57      	3692220.88      
 P-626           	3959707.19      	3692299.97      
 P-626           	3959766.55      	3692404.01      
 P-626           	3959795.96      	3692537.00      
 P-626           	3959805.92      	3692599.48      
 P-628           	3966539.68      	3705398.38      
 P-629           	3958997.23      	3695326.46      
 P-629           	3959000.53      	3695320.55      
 P-629           	3959030.66      	3695266.44      
 P-63            	3959457.42      	3692554.03      
 P-63            	3959429.97      	3692480.73      
 P-63            	3959378.99      	3692411.65      
 P-630           	3963568.88      	3694817.92      
 P-630           	3963575.88      	3694879.65      
 P-630           	3963596.98      	3694915.93      
 P-630           	3963634.97      	3694928.52      
 P-630           	3963801.30      	3694963.24      
 P-630           	3964104.02      	3695031.31      
 P-630           	3964263.18      	3695067.55      
 P-630           	3964409.59      	3695098.43      
 P-630           	3964434.66      	3695099.97      
 P-630           	3964451.92      	3695091.13      
 P-630           	3964464.95      	3695061.67      
 P-630           	3964460.34      	3694886.44      
 P-630           	3964460.38      	3694831.10      
 P-630           	3964453.81      	3694812.75      
 P-630           	3964434.08      	3694799.31      
 P-630           	3964339.66      	3694781.24      
 P-630           	3964186.81      	3694750.87      
 P-630           	3963934.05      	3694692.01      
 P-630           	3963786.13      	3694653.29      
 P-630           	3963654.16      	3694624.17      
 P-630           	3963610.86      	3694620.06      
 P-630           	3963577.60      	3694630.93      
 P-630           	3963558.39      	3694654.58      
 P-631           	3968328.05      	3701184.13      
 P-631           	3968508.47      	3701455.88      
 P-633           	3967941.22      	3703191.59      
 P-634           	3961024.76      	3707130.70      
 P-634           	3960837.03      	3706873.47      
 P-634           	3960708.94      	3706636.39      
 P-634           	3960624.43      	3706373.63      
 P-634           	3960588.03      	3706102.04      
 P-634           	3960576.58      	3705965.46      
 P-635           	3963190.45      	3695086.51      
 P-635           	3963172.26      	3694887.14      
 P-635           	3963156.23      	3694719.92      
 P-636           	3963005.95      	3694689.44      
 P-636           	3963080.40      	3694707.28      
 P-637           	3962847.43      	3694980.11      
 P-638           	3960551.75      	3693468.72      
 P-638           	3960552.66      	3693462.87      
 P-638           	3960569.81      	3693351.74      
 P-638           	3960581.96      	3693256.43      
 P-638           	3960606.91      	3693087.02      
 P-638           	3960649.77      	3692841.57      
 P-638           	3960650.57      	3692834.35      
 P-638           	3960659.74      	3692752.04      
 P-639           	3960591.64      	3692682.07      
 P-639           	3960640.66      	3692666.37      
 P-639           	3960648.34      	3692666.63      
 P-64            	3958691.95      	3695752.55      
 P-641           	3957758.72      	3704828.24      
 P-641           	3957171.21      	3704903.23      
 P-641           	3956836.84      	3704931.37      
 P-641           	3956677.46      	3704934.50      
 P-641           	3956158.71      	3704987.62      
 P-641           	3955599.34      	3704981.37      
 P-641           	3954946.22      	3704950.12      
 P-641           	3954902.48      	3704918.87      
 P-642           	3961283.11      	3699764.25      
 P-642           	3961294.59      	3699604.60      
 P-642           	3961290.13      	3699573.27      
 P-642           	3961270.77      	3699550.93      
 P-642           	3961226.05      	3699543.47      
 P-642           	3961051.96      	3699556.68      
 P-643           	3965601.88      	3703186.85      
 P-643           	3965657.71      	3703193.13      
 P-644           	3964841.04      	3705365.90      
 P-645           	3959610.91      	3693472.89      
 P-645           	3959628.55      	3693566.98      
 P-646           	3962832.34      	3694961.30      
 P-649           	3938402.47      	3705906.37      
 P-65            	3965475.05      	3704652.69      
 P-65            	3965429.65      	3704303.70      
 P-650           	3960243.01      	3693467.39      
 P-651           	3958731.44      	3696488.39      
 P-651           	3958342.64      	3696524.57      
 P-651           	3957805.01      	3696606.89      
 P-651           	3957176.89      	3696644.39      
 P-651           	3956489.39      	3696713.15      
 P-651           	3955867.52      	3696760.02      
 P-651           	3955345.63      	3696794.40      
 P-651           	3954655.00      	3696850.64      
 P-652           	3960545.54      	3692619.30      
 P-652           	3960522.97      	3692577.13      
 P-652           	3960491.60      	3692554.56      
 P-652           	3960441.58      	3692552.58      
 P-652           	3960349.38      	3692564.38      
 P-652           	3960306.22      	3692565.36      
 P-652           	3960263.06      	3692560.44      
 P-652           	3960239.53      	3692553.58      
 P-653           	3957720.81      	3693287.69      
 P-653           	3957892.94      	3693077.53      
 P-654           	3957641.27      	3693333.29      
 P-654           	3957630.75      	3693313.80      
 P-654           	3957653.27      	3693276.30      
 P-654           	3957783.77      	3693112.79      
 P-654           	3957971.42      	3692882.90      
 P-655           	3960669.27      	3692666.52      
 P-655           	3960666.46      	3692601.51      
 P-655           	3960658.22      	3692410.61      
 P-656           	3937021.23      	3706350.11      
 P-656           	3936939.97      	3707106.36      
 P-656           	3936918.10      	3707503.24      
 P-656           	3936889.97      	3707900.12      
 P-656           	3936893.10      	3708053.24      
 P-656           	3936927.47      	3708546.99      
 P-656           	3936958.72      	3708968.87      
 P-656           	3936943.09      	3709097.00      
 P-657           	3963753.76      	3692585.46      
 P-657           	3963884.38      	3692383.97      
 P-658           	3959825.32      	3695608.03      
 P-658           	3959780.20      	3695614.80      
 P-658           	3959759.65      	3695605.69      
 P-658           	3959718.75      	3695587.56      
 P-658           	3959609.48      	3695501.40      
 P-658           	3959467.17      	3695369.71      
 P-658           	3959335.79      	3695258.81      
 P-660           	3965377.26      	3704090.77      
 P-660           	3965093.33      	3704095.78      
 P-661           	3966016.04      	3703076.60      
 P-663           	3965667.51      	3703192.23      
 P-663           	3965682.44      	3703190.84      
 P-663           	3965682.11      	3703194.69      
 P-665           	3955614.40      	3688653.57      
 P-666           	3959134.71      	3695948.09      
 P-666           	3959066.06      	3695886.04      
 P-666           	3959020.73      	3695780.83      
 P-667           	3965516.46      	3702636.83      
 P-667           	3965513.78      	3702512.73      
 P-667           	3965489.61      	3702179.96      
 P-668           	3968573.01      	3703215.88      
 P-668           	3968622.66      	3703289.95      
 P-668           	3968629.73      	3703315.48      
 P-668           	3968629.17      	3703349.87      
 P-668           	3968616.87      	3703372.10      
 P-668           	3968597.08      	3703392.73      
 P-669           	3968489.11      	3703089.53      
 P-67            	3965487.60      	3702152.27      
 P-67            	3965479.83      	3702015.93      
 P-67            	3965456.72      	3701799.64      
 P-67            	3965447.23      	3701718.92      
 P-67            	3965441.01      	3701692.20      
 P-67            	3965436.36      	3701672.23      
 P-67            	3965441.17      	3701667.32      
 P-67            	3965456.94      	3701651.24      
 P-670           	3960665.64      	3692699.18      
 P-672           	3965912.44      	3700525.86      
 P-673           	3956982.18      	3692918.33      
 P-674           	3972667.01      	3707269.17      
 P-674           	3972655.77      	3707277.80      
 P-675           	3963292.12      	3695469.68      
 P-675           	3963267.91      	3695310.90      
 P-675           	3963237.15      	3695310.41      
 P-675           	3963226.63      	3695232.63      
 P-675           	3963207.37      	3695232.34      
 P-676           	3969062.81      	3708948.91      
 P-677           	3963288.47      	3698163.77      
 P-677           	3963302.32      	3698175.98      
 P-679           	3960413.26      	3691373.89      
 P-679           	3960442.80      	3691412.50      
 P-679           	3960458.70      	3691476.10      
 P-679           	3960467.79      	3691744.17      
 P-679           	3960481.41      	3691980.41      
 P-679           	3960481.41      	3692037.21      
 P-679           	3960456.42      	3692091.73      
 P-679           	3960410.99      	3692116.71      
 P-679           	3960324.67      	3692132.63      
 P-679           	3960097.50      	3692164.42      
 P-679           	3960022.53      	3692162.15      
 P-679           	3959958.93      	3692139.44      
 P-679           	3959908.96      	3692096.28      
 P-679           	3959877.76      	3692058.36      
 P-679           	3959836.32      	3692014.57      
 P-68            	3965350.99      	3703176.83      
 P-68            	3965350.60      	3703190.48      
 P-682           	3959285.19      	3692421.15      
 P-682           	3959228.53      	3692486.53      
 P-682           	3959216.24      	3692500.70      
 P-682           	3959194.52      	3692557.62      
 P-682           	3959196.16      	3692617.50      
 P-682           	3959224.58      	3692792.32      
 P-682           	3959253.13      	3692965.51      
 P-682           	3959317.06      	3693353.35      
 P-682           	3959320.84      	3693398.06      
 P-682           	3959320.45      	3693465.30      
 P-682           	3959335.56      	3693496.76      
 P-682           	3959358.85      	3693504.96      
 P-682           	3959387.51      	3693502.80      
 P-682           	3959450.33      	3693480.39      
 P-682           	3959577.72      	3693457.04      
 P-684           	3962875.64      	3695413.29      
 P-684           	3962875.66      	3695177.64      
 P-684           	3963175.97      	3695170.97      
 P-685           	3964349.22      	3698792.83      
 P-685           	3964496.80      	3698526.28      
 P-685           	3964518.13      	3698488.01      
 P-685           	3964559.74      	3698396.76      
 P-685           	3964419.55      	3698178.14      
 P-685           	3964222.70      	3697871.18      
 P-686           	3966097.61      	3703071.35      
 P-686           	3966163.17      	3703064.08      
 P-686           	3966208.35      	3703059.07      
 P-686           	3966301.39      	3703039.97      
 P-686           	3966359.81      	3703018.42      
 P-686           	3966362.55      	3703016.82      
 P-686           	3966414.65      	3702986.52      
 P-687           	3956838.96      	3688868.38      
 P-688           	3967479.12      	3701545.15      
 P-688           	3967641.63      	3701794.32      
 P-689           	3968221.39      	3704485.73      
 P-69            	3961788.81      	3695249.47      
 P-69            	3961293.11      	3695229.51      
 P-69            	3960930.44      	3695212.10      
 P-69            	3960911.35      	3695211.19      
 P-690           	3965397.33      	3704074.66      
 P-690           	3965395.43      	3704061.43      
 P-690           	3965359.34      	3703810.19      
 P-690           	3965318.00      	3703625.85      
 P-692           	3965776.63      	3702478.75      
 P-693           	3970856.73      	3705050.23      
 P-694           	3969012.48      	3704998.53      
 P-694           	3968998.37      	3704995.34      
 P-694           	3969001.70      	3704974.98      
 P-695           	3964013.17      	3697838.93      
 P-695           	3964105.31      	3697781.32      
 P-695           	3964163.61      	3697754.71      
 P-698           	3965643.66      	3701788.52      
 P-698           	3965630.26      	3701673.16      
 P-698           	3965609.72      	3701621.91      
 P-698           	3965579.03      	3701590.20      
 P-699           	3966766.63      	3705121.66      
 P-699           	3966752.10      	3705152.37      
 P-699           	3966735.03      	3705188.42      
 P-699           	3966748.40      	3705196.66      
 P-7             	3967936.93      	3704074.53      
 P-7             	3967952.67      	3704051.88      
 P-70            	3971810.12      	3704781.99      
 P-700           	3965453.59      	3686321.51      
 P-700           	3965474.70      	3686334.75      
 P-701           	3964910.69      	3687194.98      
 P-701           	3965017.79      	3687006.15      
 P-701           	3965221.76      	3686676.62      
 P-702           	3967214.77      	3701628.54      
 P-702           	3967252.29      	3701689.70      
 P-702           	3967415.40      	3701932.03      
 P-703           	3962967.09      	3697185.27      
 P-703           	3962969.89      	3697163.02      
 P-704           	3967578.55      	3702198.24      
 P-704           	3967744.13      	3702433.14      
 P-705           	3968931.32      	3702080.74      
 P-705           	3968994.59      	3702170.55      
 P-706           	3969267.59      	3702563.87      
 P-706           	3969358.27      	3702476.07      
 P-706           	3969516.21      	3702402.16      
 P-706           	3969708.29      	3702321.57      
 P-706           	3969855.24      	3702272.62      
 P-706           	3969934.82      	3702250.46      
 P-706           	3970055.67      	3702228.97      
 P-706           	3970170.44      	3702203.48      
 P-706           	3970281.48      	3702167.33      
 P-707           	3968253.54      	3703219.08      
 P-708           	3966251.00      	3704091.09      
 P-708           	3966254.63      	3704126.15      
 P-709           	3968424.64      	3704568.72      
 P-709           	3968438.86      	3704489.97      
 P-709           	3968735.57      	3704558.18      
 P-71            	3958672.02      	3696878.51      
 P-71            	3959128.44      	3696847.93      
 P-711           	3968905.10      	3702043.52      
 P-713           	3964911.65      	3704923.82      
 P-713           	3964917.33      	3704940.09      
 P-713           	3964982.22      	3705126.04      
 P-713           	3964998.13      	3705171.60      
 P-713           	3965033.21      	3705262.15      
 P-713           	3965059.76      	3705274.16      
 P-713           	3965154.81      	3705244.17      
 P-713           	3965175.27      	3705237.71      
 P-713           	3965227.27      	3705218.05      
 P-713           	3965231.14      	3705199.40      
 P-713           	3965156.93      	3704979.69      
 P-713           	3965089.03      	3704778.67      
 P-713           	3965084.95      	3704766.60      
 P-714           	3993684.60      	3687390.80      
 P-714           	3993253.34      	3687259.56      
 P-714           	3992947.10      	3687209.56      
 P-714           	3992956.47      	3687031.43      
 P-714           	3992565.84      	3686953.31      
 P-714           	3992581.49      	3686906.44      
 P-714           	3992362.71      	3686809.57      
 P-714           	3991915.87      	3686606.44      
 P-714           	3991640.85      	3686522.06      
 P-714           	3991378.35      	3686465.81      
 P-714           	3991137.71      	3686493.95      
 P-714           	3990978.34      	3686522.06      
 P-714           	3990818.98      	3686518.93      
 P-714           	3990684.60      	3686528.31      
 P-714           	3990200.22      	3686637.69      
 P-714           	3989703.34      	3686747.06      
 P-714           	3989615.85      	3686756.45      
 P-714           	3989515.84      	3686747.06      
 P-714           	3989134.60      	3686625.19      
 P-714           	3988781.47      	3686531.43      
 P-714           	3988500.22      	3686440.79      
 P-714           	3988065.83      	3686322.07      
 P-714           	3987547.09      	3686162.69      
 P-714           	3987525.22      	3686256.45      
 P-716           	3965778.74      	3704666.24      
 P-717           	3972697.88      	3704555.83      
 P-717           	3972715.45      	3704553.44      
 P-718           	3978019.14      	3679384.75      
 P-719           	3963926.83      	3697777.35      
 P-72            	3964986.71      	3703001.99      
 P-721           	3964494.89      	3699111.51      
 P-721           	3964617.27      	3699204.16      
 P-722           	3967455.91      	3710449.80      
 P-722           	3967469.92      	3710638.44      
 P-722           	3967472.02      	3710707.42      
 P-722           	3967479.74      	3710852.56      
 P-722           	3967484.96      	3710939.75      
 P-722           	3967499.88      	3710954.20      
 P-722           	3967588.89      	3710953.72      
 P-722           	3967819.24      	3710935.66      
 P-724           	3939312.88      	3706552.89      
 P-724           	3939856.63      	3707159.15      
 P-724           	3940159.77      	3707496.64      
 P-724           	3940306.64      	3707740.39      
 P-724           	3940387.88      	3707959.14      
 P-724           	3940537.89      	3708384.15      
 P-724           	3940725.39      	3708812.26      
 P-724           	3940925.38      	3709134.15      
 P-724           	3941175.38      	3709462.27      
 P-724           	3941331.63      	3709643.51      
 P-724           	3941669.13      	3710043.52      
 P-724           	3941762.89      	3710181.02      
 P-724           	3941844.13      	3710343.51      
 P-724           	3941956.64      	3710562.26      
 P-725           	3964021.39      	3692828.30      
 P-725           	3964000.54      	3692905.72      
 P-725           	3963955.88      	3693009.93      
 P-725           	3963943.97      	3693057.59      
 P-728           	3961434.15      	3699768.10      
 P-728           	3961648.29      	3699683.36      
 P-729           	3959837.98      	3692800.65      
 P-729           	3959841.73      	3692822.96      
 P-729           	3959878.33      	3693040.67      
 P-73            	3965327.89      	3703613.37      
 P-73            	3965329.28      	3703611.02      
 P-730           	3960640.84      	3692722.94      
 P-730           	3960612.21      	3692722.29      
 P-730           	3960577.89      	3692738.94      
 P-730           	3960562.21      	3692765.43      
 P-730           	3960547.50      	3692821.33      
 P-730           	3960540.64      	3692857.63      
 P-730           	3960527.87      	3692883.14      
 P-730           	3960507.28      	3692894.90      
 P-730           	3960464.13      	3692905.69      
 P-730           	3960413.11      	3692911.57      
 P-730           	3960373.91      	3692917.45      
 P-730           	3960360.40      	3692918.77      
 P-730           	3960333.69      	3692921.37      
 P-730           	3960306.22      	3692920.39      
 P-730           	3960281.71      	3692912.55      
 P-730           	3960268.96      	3692891.96      
 P-730           	3960263.06      	3692871.35      
 P-730           	3960265.02      	3692842.92      
 P-730           	3960280.73      	3692823.29      
 P-730           	3960308.18      	3692819.37      
 P-730           	3960339.57      	3692817.41      
 P-730           	3960397.44      	3692821.33      
 P-730           	3960437.65      	3692816.43      
 P-730           	3960466.09      	3692813.49      
 P-730           	3960488.66      	3692789.96      
 P-730           	3960514.15      	3692737.97      
 P-730           	3960541.62      	3692701.68      
 P-731           	3966683.02      	3704273.37      
 P-731           	3966570.33      	3704475.45      
 P-731           	3966763.78      	3704599.99      
 P-731           	3966788.69      	3704616.03      
 P-731           	3966778.15      	3704633.72      
 P-731           	3966751.72      	3704678.09      
 P-731           	3966689.77      	3704782.07      
 P-731           	3966676.78      	3704803.87      
 P-731           	3966687.02      	3704810.54      
 P-731           	3966804.03      	3704886.68      
 P-731           	3966831.26      	3704904.40      
 P-733           	3965973.26      	3702407.17      
 P-733           	3965993.52      	3702825.72      
 P-733           	3966004.18      	3703045.99      
 P-734           	3970982.39      	3704527.88      
 P-735           	3968135.64      	3702546.05      
 P-735           	3968297.05      	3702794.18      
 P-736           	3968364.21      	3702901.45      
 P-736           	3968479.40      	3703074.93      
 P-737           	3965978.75      	3702310.82      
 P-737           	3965947.42      	3702051.49      
 P-739           	3968361.14      	3704711.55      
 P-739           	3968343.01      	3704787.28      
 P-74            	3965577.34      	3702611.29      
 P-740           	3966135.67      	3702347.64      
 P-740           	3966337.68      	3702306.06      
 P-740           	3966419.00      	3702290.14      
 P-741           	3972326.98      	3704970.53      
 P-741           	3972336.00      	3704980.39      
 P-741           	3972507.37      	3705167.57      
 P-741           	3972326.67      	3705330.55      
 P-742           	3968464.21      	3702707.42      
 P-742           	3968539.88      	3702661.99      
 P-742           	3968575.51      	3702655.35      
 P-742           	3968596.36      	3702671.23      
 P-742           	3968612.95      	3702708.48      
 P-744           	3938325.38      	3705490.39      
 P-744           	3938244.14      	3705331.01      
 P-744           	3937937.89      	3704731.02      
 P-744           	3937997.26      	3704702.89      
 P-744           	3937794.14      	3704318.51      
 P-744           	3937766.01      	3704293.51      
 P-744           	3937644.13      	3703990.39      
 P-744           	3937459.75      	3703327.91      
 P-744           	3937297.26      	3702959.14      
 P-744           	3937510.03      	3702661.29      
 P-744           	3937532.41      	3702504.63      
 P-744           	3937353.37      	3702370.36      
 P-744           	3937151.96      	3702303.22      
 P-745           	3961386.98      	3707424.31      
 P-745           	3961670.16      	3707560.77      
 P-745           	3961889.54      	3707638.65      
 P-745           	3962104.33      	3707704.44      
 P-745           	3962341.41      	3707725.05      
 P-747           	3972074.36      	3703539.08      
 P-748           	3971933.54      	3705677.71      
 P-75            	3958742.54      	3696323.40      
 P-75            	3958729.98      	3696148.33      
 P-750           	3967253.38      	3705147.60      
 P-751           	3962041.55      	3699330.74      
 P-751           	3962080.70      	3699193.71      
 P-751           	3962112.72      	3698996.62      
 P-751           	3962131.74      	3698903.39      
 P-751           	3962129.35      	3698765.99      
 P-753           	3970159.01      	3704357.44      
 P-755           	3964125.62      	3692673.42      
 P-755           	3964170.28      	3692655.60      
 P-755           	3964194.37      	3692665.72      
 P-755           	3964226.87      	3692679.39      
 P-755           	3964322.15      	3692724.07      
 P-755           	3964375.76      	3692744.91      
 P-756           	3960214.04      	3692468.26      
 P-756           	3960201.26      	3692446.67      
 P-756           	3960167.94      	3692430.00      
 P-756           	3960142.43      	3692435.89      
 P-756           	3960123.80      	3692462.38      
 P-756           	3960122.82      	3692486.89      
 P-756           	3960130.25      	3692509.19      
 P-756           	3960130.66      	3692510.44      
 P-756           	3960142.43      	3692522.20      
 P-756           	3960165.00      	3692536.91      
 P-757           	3963748.14      	3692633.85      
 P-757           	3963917.17      	3692682.39      
 P-757           	3963982.68      	3692715.13      
 P-758           	3965634.38      	3703000.32      
 P-758           	3965645.97      	3703112.88      
 P-759           	3936608.71      	3705928.22      
 P-759           	3935886.85      	3705965.74      
 P-759           	3935146.22      	3706015.74      
 P-759           	3934374.35      	3706065.74      
 P-759           	3934058.71      	3706078.24      
 P-759           	3933155.60      	3706134.48      
 P-76            	3964373.52      	3705093.24      
 P-760           	3967381.14      	3704919.85      
 P-762           	3966862.47      	3704924.63      
 P-762           	3966896.58      	3704946.69      
 P-762           	3967008.56      	3705019.43      
 P-762           	3967072.14      	3705052.73      
 P-762           	3967218.19      	3705149.80      
 P-763           	3971259.37      	3703173.16      
 P-763           	3971433.33      	3703112.42      
 P-764           	3958045.52      	3698011.54      
 P-765           	3966614.94      	3702850.64      
 P-765           	3966796.32      	3702725.45      
 P-766           	3965619.48      	3702748.63      
 P-767           	3957055.01      	3691966.23      
 P-767           	3957065.46      	3691663.07      
 P-768           	3960535.33      	3704747.15      
 P-769           	3968747.71      	3704905.88      
 P-77            	3958305.50      	3698432.56      
 P-770           	3967076.21      	3701465.63      
 P-771           	3968413.16      	3704456.51      
 P-772           	3960554.64      	3703077.18      
 P-772           	3960685.89      	3702725.63      
 P-772           	3960837.38      	3702228.33      
 P-772           	3960930.35      	3702024.79      
 P-773           	3962031.96      	3701833.64      
 P-773           	3962005.52      	3701912.79      
 P-773           	3961979.96      	3701905.61      
 P-773           	3961931.42      	3702086.42      
 P-774           	3962974.28      	3697111.74      
 P-774           	3963008.37      	3696886.62      
 P-775           	3957543.09      	3693511.58      
 P-775           	3957549.42      	3693503.64      
 P-776           	3962107.12      	3702126.76      
 P-777           	3971707.50      	3705518.70      
 P-778           	3966722.20      	3705115.49      
 P-779           	3959756.76      	3691948.62      
 P-779           	3959702.24      	3691894.11      
 P-779           	3959670.43      	3691839.57      
 P-779           	3959670.43      	3691773.69      
 P-779           	3959720.41      	3691696.46      
 P-779           	3959809.00      	3691610.15      
 P-779           	3959905.06      	3691489.09      
 P-779           	3959995.27      	3691373.89      
 P-779           	3960052.07      	3691303.47      
 P-779           	3960057.53      	3691299.18      
 P-78            	3962360.77      	3701021.01      
 P-78            	3962267.58      	3700998.72      
 P-780           	3962077.75      	3704595.49      
 P-780           	3962080.50      	3704666.80      
 P-780           	3962066.78      	3704732.65      
 P-780           	3962055.80      	3704834.14      
 P-780           	3962083.23      	3704995.99      
 P-781           	3962144.83      	3704418.46      
 P-782           	3961858.39      	3694561.38      
 P-782           	3961933.94      	3694615.00      
 P-782           	3962023.27      	3694632.87      
 P-782           	3962273.31      	3694635.83      
 P-783           	3962667.78      	3694625.53      
 P-783           	3962793.65      	3694629.88      
 P-783           	3962849.30      	3694637.15      
 P-784           	3960075.58      	3691716.12      
 P-784           	3960137.10      	3691635.23      
 P-785           	3954824.34      	3704937.62      
 P-785           	3954124.35      	3704925.12      
 P-785           	3953577.48      	3704937.62      
 P-785           	3952949.35      	3704975.12      
 P-785           	3951958.72      	3705015.74      
 P-785           	3951096.23      	3705068.86      
 P-785           	3950005.59      	3705125.11      
 P-785           	3949124.35      	3705140.75      
 P-785           	3948402.46      	3705143.87      
 P-785           	3947946.22      	3705190.73      
 P-785           	3947286.84      	3705259.49      
 P-785           	3947146.21      	3705281.36      
 P-785           	3945958.72      	3705443.87      
 P-786           	3972341.32      	3704054.53      
 P-787           	3972839.82      	3706343.18      
 P-787           	3973190.52      	3706111.32      
 P-787           	3972904.63      	3705506.23      
 P-787           	3972877.53      	3705411.46      
 P-788           	3959830.27      	3691983.25      
 P-79            	3964767.44      	3705083.55      
 P-79            	3964785.05      	3705079.42      
 P-79            	3964765.83      	3704990.95      
 P-79            	3964855.91      	3704956.60      
 P-79            	3964911.65      	3704923.82      
 P-79            	3964912.91      	3704923.07      
 P-79            	3964967.43      	3704873.00      
 P-79            	3965084.95      	3704766.60      
 P-79            	3965182.70      	3704678.11      
 P-79            	3965203.88      	3704664.21      
 P-79            	3965221.65      	3704652.57      
 P-79            	3965475.05      	3704652.69      
 P-791           	3972525.42      	3704759.21      
 P-792           	3960566.71      	3704717.52      
 P-792           	3960950.15      	3704685.22      
 P-792           	3961399.49      	3704627.85      
 P-792           	3961817.70      	3704509.76      
 P-792           	3961862.99      	3704496.43      
 P-793           	3970560.71      	3700961.18      
 P-793           	3970648.00      	3701084.13      
 P-793           	3970794.57      	3701294.91      
 P-793           	3970873.26      	3701407.54      
 P-793           	3970928.44      	3701473.49      
 P-793           	3970956.02      	3701493.62      
 P-794           	3972213.31      	3705025.82      
 P-794           	3972189.65      	3705001.38      
 P-794           	3972193.88      	3705000.43      
 P-794           	3972210.12      	3704996.78      
 P-794           	3972271.55      	3704982.98      
 P-794           	3972326.98      	3704970.53      
 P-794           	3972363.56      	3704962.32      
 P-794           	3972409.15      	3704947.93      
 P-794           	3972415.33      	3704941.60      
 P-795           	3970825.76      	3700735.71      
 P-795           	3970971.46      	3700639.17      
 P-795           	3971043.31      	3700618.23      
 P-796           	3971694.83      	3705986.82      
 P-796           	3971764.02      	3706058.27      
 P-796           	3971869.96      	3706234.65      
 P-797           	3970576.89      	3700914.42      
 P-797           	3970629.96      	3700875.64      
 P-798           	3945374.35      	3705637.61      
 P-798           	3944530.59      	3705753.24      
 P-798           	3944071.23      	3705809.49      
 P-798           	3943539.98      	3705809.49      
 P-798           	3942668.10      	3705737.62      
 P-798           	3942130.60      	3705693.87      
 P-798           	3941589.96      	3705718.87      
 P-798           	3940721.22      	3705781.36      
 P-798           	3939880.60      	3705818.84      
 P-798           	3939155.60      	3705859.50      
 P-8             	3961677.41      	3697625.31      
 P-8             	3961417.84      	3697428.18      
 P-80            	3961183.02      	3696366.37      
 P-80            	3961458.07      	3696595.32      
 P-80            	3961443.74      	3696618.63      
 P-80            	3961424.42      	3696650.08      
 P-80            	3961641.69      	3696834.90      
 P-80            	3961801.51      	3696962.43      
 P-80            	3961864.41      	3697012.52      
 P-80            	3961908.94      	3697047.97      
 P-80            	3961950.53      	3697081.08      
 P-80            	3961977.48      	3697102.55      
 P-80            	3962133.29      	3697223.88      
 P-80            	3962322.69      	3697377.98      
 P-800           	3971591.64      	3704614.81      
 P-801           	3969783.07      	3701472.73      
 P-801           	3970118.11      	3701231.82      
 P-802           	3972593.60      	3704211.36      
 P-802           	3972581.69      	3704196.08      
 P-802           	3972460.90      	3704041.11      
 P-803           	3970173.29      	3701192.54      
 P-803           	3970691.40      	3700823.64      
 P-803           	3970967.80      	3700628.35      
 P-803           	3971059.19      	3700607.08      
 P-805           	3971639.61      	3703794.19      
 P-805           	3971961.66      	3703549.50      
 P-805           	3972017.38      	3703628.04      
 P-805           	3972032.76      	3703649.71      
 P-806           	3968077.86      	3700652.87      
 P-807           	3972805.73      	3704825.67      
 P-808           	3970253.38      	3701360.11      
 P-808           	3970165.64      	3701239.04      
 P-810           	3968239.21      	3700013.79      
 P-810           	3968252.32      	3699970.87      
 P-810           	3968323.96      	3699694.91      
 P-810           	3968314.94      	3699692.34      
 P-811           	3970184.37      	3701195.07      
 P-811           	3970212.81      	3701176.08      
 P-811           	3970377.79      	3701055.66      
 P-811           	3970400.42      	3701040.43      
 P-811           	3970534.17      	3700945.64      
 P-812           	3972332.15      	3704021.52      
 P-812           	3972337.03      	3704018.84      
 P-812           	3972361.47      	3704025.37      
 P-812           	3972404.22      	3703991.86      
 P-815           	3960232.93      	3704352.41      
 P-815           	3960242.93      	3704589.71      
 P-815           	3960190.09      	3704593.23      
 P-815           	3959793.28      	3704619.69      
 P-815           	3959016.39      	3704674.64      
 P-815           	3958520.74      	3704712.19      
 P-816           	3971522.73      	3706891.78      
 P-816           	3971396.84      	3706753.40      
 P-816           	3971256.67      	3706543.26      
 P-816           	3971270.45      	3706409.74      
 P-816           	3971273.38      	3706381.29      
 P-816           	3971269.94      	3706372.77      
 P-816           	3971263.74      	3706371.72      
 P-816           	3971185.31      	3706363.93      
 P-816           	3971186.66      	3706351.04      
 P-816           	3971202.48      	3706201.08      
 P-816           	3971207.11      	3706157.14      
 P-816           	3971210.38      	3706126.20      
 P-816           	3971214.49      	3706087.19      
 P-816           	3971418.77      	3706088.71      
 P-816           	3971501.56      	3706089.33      
 P-817           	3967196.72      	3710362.21      
 P-817           	3967043.13      	3710370.03      
 P-818           	3962052.97      	3700467.16      
 P-818           	3962054.26      	3700459.71      
 P-818           	3962076.20      	3700329.76      
 P-818           	3962080.38      	3700303.54      
 P-818           	3962136.97      	3700016.84      
 P-818           	3962204.20      	3699665.21      
 P-819           	3963143.95      	3694550.64      
 P-819           	3963134.15      	3694395.29      
 P-819           	3963144.13      	3694306.62      
 P-82            	3960700.13      	3698752.99      
 P-820           	3972228.00      	3706688.18      
 P-820           	3972240.21      	3706703.90      
 P-821           	3963412.50      	3693201.25      
 P-822           	3955744.78      	3690223.92      
 P-822           	3955671.62      	3690157.70      
 P-822           	3955574.03      	3690098.47      
 P-822           	3955521.00      	3690019.51      
 P-822           	3955514.80      	3689885.90      
 P-822           	3955455.55      	3689725.60      
 P-822           	3955486.81      	3689561.34      
 P-824           	3962828.74      	3697797.78      
 P-824           	3962876.18      	3697687.76      
 P-824           	3962917.31      	3697536.88      
 P-825           	3958388.15      	3694210.28      
 P-825           	3958464.04      	3694092.55      
 P-826           	3957692.48      	3693699.32      
 P-826           	3957632.82      	3693637.49      
 P-826           	3957530.78      	3693527.21      
 P-826           	3957522.11      	3693517.84      
 P-827           	3962071.35      	3696775.06      
 P-827           	3962043.92      	3696811.35      
 P-827           	3962003.07      	3696865.38      
 P-828           	3956578.56      	3692881.17      
 P-828           	3956505.60      	3692993.93      
 P-829           	3962283.16      	3697071.11      
 P-83            	3965362.02      	3703555.64      
 P-830           	3960851.83      	3696019.82      
 P-831           	3963213.40      	3698083.39      
 P-831           	3963363.40      	3697864.52      
 P-832           	3963478.71      	3697949.22      
 P-833           	3962038.33      	3700487.75      
 P-834           	3962803.94      	3697821.72      
 P-834           	3962789.78      	3697853.28      
 P-834           	3962713.92      	3698011.52      
 P-837           	3962979.24      	3698358.32      
 P-837           	3963055.12      	3698253.89      
 P-837           	3963172.51      	3698098.33      
 P-838           	3963175.19      	3698071.17      
 P-839           	3963136.60      	3698068.36      
 P-839           	3963125.59      	3698060.86      
 P-839           	3962991.46      	3697962.80      
 P-839           	3962829.74      	3697833.78      
 P-839           	3962813.12      	3697822.82      
 P-84            	3965000.36      	3703110.48      
 P-84            	3965000.14      	3703104.12      
 P-84            	3964991.25      	3703036.70      
 P-84            	3964982.35      	3703021.61      
 P-840           	3963159.02      	3698069.98      
 P-841           	3963292.75      	3698194.36      
 P-841           	3963276.95      	3698180.95      
 P-841           	3963193.58      	3698110.19      
 P-842           	3964179.21      	3698855.57      
 P-843           	3965340.17      	3686488.50      
 P-845           	3967529.90      	3707579.21      
 P-845           	3967489.63      	3707732.12      
 P-845           	3967421.98      	3707913.81      
 P-845           	3967360.91      	3708062.65      
 P-846           	3968703.11      	3704787.30      
 P-847           	3968714.36      	3704777.49      
 P-848           	3964982.33      	3703506.18      
 P-848           	3964986.58      	3703560.46      
 P-848           	3965016.61      	3703590.31      
 P-848           	3965018.51      	3703629.83      
 P-848           	3965027.79      	3703823.71      
 P-848           	3965037.47      	3703838.77      
 P-848           	3965046.31      	3703852.49      
 P-848           	3965069.09      	3704037.94      
 P-848           	3965074.09      	3704081.36      
 P-848           	3965074.49      	3704084.81      
 P-849           	3972902.65      	3707197.76      
 P-849           	3973043.28      	3707372.75      
 P-849           	3973255.78      	3707635.25      
 P-849           	3973624.52      	3708100.88      
 P-849           	3973899.52      	3708429.00      
 P-849           	3974046.39      	3708632.13      
 P-849           	3974452.66      	3709132.13      
 P-849           	3974383.90      	3709172.75      
 P-849           	3974549.53      	3709375.88      
 P-849           	3974883.90      	3709800.88      
 P-849           	3975146.40      	3710132.13      
 P-849           	3975299.53      	3710335.26      
 P-849           	3975552.66      	3710607.13      
 P-849           	3976243.27      	3711488.39      
 P-849           	3976690.17      	3712041.51      
 P-849           	3977187.04      	3712669.64      
 P-849           	3978171.40      	3713925.89      
 P-849           	3978702.65      	3714588.38      
 P-849           	3979283.89      	3715244.64      
 P-849           	3979746.41      	3715747.76      
 P-849           	3979880.97      	3715895.06      
 P-849           	3980028.56      	3716046.49      
 P-849           	3980136.15      	3716171.19      
 P-85            	3962536.04      	3701059.05      
 P-850           	3972570.26      	3707142.55      
 P-851           	3971500.13      	3700283.87      
 P-852           	3971499.63      	3700284.85      
 P-853           	3968281.61      	3702301.08      
 P-853           	3968532.41      	3702170.87      
 P-854           	3971500.95      	3700285.34      
 P-855           	3963334.04      	3698206.18      
 P-857           	3963681.27      	3696252.47      
 P-858           	3970463.35      	3704660.23      
 P-86            	3959942.59      	3693426.03      
 P-86            	3959943.77      	3693433.86      
 P-86            	3959966.25      	3693557.54      
 P-860           	3967491.23      	3708142.28      
 P-860           	3967847.50      	3708253.61      
 P-860           	3968213.37      	3708324.62      
 P-863           	3956875.49      	3691449.64      
 P-863           	3956887.74      	3691307.64      
 P-863           	3956845.93      	3691175.23      
 P-864           	3964059.34      	3695763.12      
 P-864           	3964293.49      	3695805.17      
 P-864           	3964346.87      	3695691.54      
 P-864           	3964343.41      	3695681.44      
 P-865           	3982557.51      	3701875.18      
 P-865           	3982726.25      	3701315.81      
 P-865           	3982857.51      	3700850.20      
 P-865           	3982945.00      	3700540.81      
 P-865           	3982988.76      	3700506.44      
 P-865           	3983091.88      	3700187.69      
 P-865           	3983291.89      	3699503.31      
 P-865           	3983426.27      	3699037.70      
 P-865           	3983526.26      	3698693.94      
 P-865           	3983732.51      	3697987.69      
 P-865           	3983807.51      	3697737.71      
 P-865           	3984035.64      	3697506.44      
 P-865           	3984235.64      	3697378.32      
 P-865           	3984579.38      	3697268.95      
 P-865           	3985388.78      	3697031.45      
 P-865           	3985682.52      	3696934.56      
 P-865           	3986688.77      	3696625.19      
 P-865           	3987635.63      	3696350.18      
 P-865           	3988360.63      	3696137.69      
 P-866           	3955549.33      	3689140.77      
 P-867           	3968644.98      	3702121.43      
 P-867           	3968702.81      	3702095.61      
 P-867           	3968747.37      	3702077.95      
 P-868           	3966025.54      	3703582.91      
 P-868           	3966045.72      	3703405.43      
 P-87            	3968618.84      	3703010.89      
 P-87            	3968748.72      	3702913.68      
 P-87            	3968865.08      	3702824.06      
 P-87            	3968949.91      	3702752.91      
 P-87            	3969011.90      	3702713.72      
 P-87            	3969244.87      	3702577.19      
 P-870           	3955852.43      	3689517.98      
 P-870           	3955917.23      	3689487.38      
 P-870           	3955973.03      	3689382.97      
 P-870           	3956012.89      	3689231.63      
 P-870           	3956050.44      	3689017.55      
 P-870           	3956064.97      	3688919.47      
 P-870           	3956045.04      	3688878.95      
 P-870           	3956001.17      	3688789.75      
 P-870           	3955904.63      	3688730.24      
 P-871           	3959545.13      	3693057.80      
 P-871           	3959529.33      	3692937.76      
 P-871           	3959467.94      	3692603.95      
 P-872           	3955647.68      	3688446.92      
 P-872           	3955627.55      	3688169.47      
 P-874           	3966087.07      	3703090.56      
 P-875           	3960997.19      	3693574.85      
 P-875           	3961087.55      	3693592.05      
 P-875           	3961320.76      	3693574.84      
 P-875           	3961656.35      	3693537.29      
 P-875           	3961722.70      	3693522.49      
 P-875           	3961742.76      	3693517.93      
 P-876           	3972228.31      	3706666.65      
 P-876           	3972441.96      	3706573.45      
 P-88            	3960665.44      	3698748.07      
 P-88            	3960656.82      	3698738.36      
 P-88            	3960646.82      	3698698.23      
 P-88            	3960616.10      	3698288.71      
 P-88            	3960605.23      	3698279.78      
 P-88            	3960571.65      	3698252.20      
 P-885           	3963622.57      	3692809.46      
 P-885           	3963565.13      	3692944.76      
 P-885           	3963501.52      	3693098.52      
 P-885           	3963457.05      	3693079.91      
 P-886           	3988823.13      	3696187.69      
 P-886           	3988951.25      	3696115.82      
 P-886           	3989116.88      	3695931.44      
 P-886           	3989210.64      	3695765.81      
 P-886           	3989270.01      	3695550.18      
 P-886           	3989298.14      	3695334.57      
 P-886           	3989320.01      	3695075.18      
 P-886           	3989338.76      	3694875.19      
 P-886           	3989435.63      	3694706.44      
 P-886           	3989566.88      	3694618.94      
 P-886           	3989857.53      	3694547.06      
 P-886           	3990020.01      	3694478.31      
 P-886           	3990154.38      	3694372.07      
 P-886           	3990363.76      	3694215.81      
 P-886           	3990582.51      	3694053.31      
 P-886           	3990898.13      	3693906.44      
 P-886           	3991301.26      	3693700.19      
 P-886           	3992201.27      	3693284.56      
 P-886           	3992410.63      	3693181.44      
 P-886           	3992476.25      	3693131.44      
 P-886           	3992510.64      	3693047.06      
 P-886           	3992657.52      	3692528.31      
 P-886           	3992848.13      	3691878.32      
 P-886           	3992966.89      	3691572.07      
 P-886           	3993038.76      	3691397.07      
 P-886           	3993163.77      	3691203.31      
 P-886           	3993460.64      	3690843.93      
 P-886           	3993710.64      	3690540.81      
 P-886           	3994004.39      	3690181.46      
 P-886           	3994129.38      	3689934.56      
 P-886           	3994235.64      	3689628.32      
 P-886           	3994335.64      	3689328.32      
 P-886           	3994401.26      	3689134.57      
 P-886           	3994513.76      	3688743.95      
 P-886           	3994566.89      	3688625.19      
 P-886           	3994776.26      	3688468.94      
 P-887           	3972205.55      	3706679.17      
 P-887           	3972187.23      	3706690.30      
 P-888           	3969278.33      	3693926.33      
 P-888           	3969618.95      	3693357.57      
 P-888           	3969890.80      	3692916.94      
 P-888           	3970081.45      	3692635.69      
 P-888           	3970243.94      	3692448.20      
 P-888           	3970409.57      	3692154.44      
 P-888           	3970681.44      	3691663.83      
 P-888           	3971225.19      	3690716.95      
 P-888           	3971715.82      	3689835.71      
 P-888           	3972387.70      	3688651.34      
 P-888           	3972650.20      	3688201.33      
 P-888           	3972797.08      	3688023.20      
 P-888           	3973059.58      	3687710.70      
 P-888           	3973556.44      	3687060.70      
 P-888           	3973775.19      	3686745.07      
 P-89            	3957219.96      	3690787.99      
 P-89            	3957277.43      	3690790.34      
 P-890           	3972203.30      	3706712.82      
 P-891           	3974231.44      	3685970.06      
 P-891           	3974387.70      	3685651.33      
 P-891           	3974668.95      	3685104.42      
 P-891           	3975140.82      	3684170.08      
 P-891           	3975259.57      	3683970.07      
 P-891           	3975397.07      	3683735.68      
 P-891           	3975534.58      	3683510.70      
 P-891           	3975587.70      	3683538.82      
 P-891           	3975828.31      	3683129.44      
 P-891           	3976262.69      	3682416.95      
 P-891           	3976734.57      	3681632.58      
 P-891           	3977137.70      	3680973.20      
 P-891           	3977365.81      	3680598.19      
 P-891           	3977518.94      	3680345.06      
 P-891           	3977590.81      	3680201.31      
 P-891           	3977631.45      	3680032.57      
 P-891           	3977693.95      	3679826.32      
 P-891           	3977790.83      	3679635.69      
 P-891           	3977903.57      	3679479.21      
 P-891           	3977939.22      	3679449.77      
 P-892           	3987168.97      	3686115.82      
 P-892           	3987059.59      	3686022.06      
 P-892           	3986925.22      	3685872.07      
 P-892           	3986772.09      	3685656.44      
 P-892           	3986556.48      	3685378.32      
 P-892           	3986372.10      	3685159.56      
 P-892           	3986178.35      	3684934.56      
 P-892           	3986015.84      	3684737.70      
 P-892           	3985884.60      	3684622.07      
 P-892           	3985572.09      	3684400.19      
 P-892           	3985312.71      	3684237.70      
 P-892           	3985156.47      	3684137.69      
 P-892           	3984828.34      	3684003.31      
 P-892           	3984590.85      	3683909.57      
 P-892           	3984034.59      	3683693.94      
 P-892           	3983375.21      	3683403.31      
 P-892           	3982784.59      	3683165.81      
 P-892           	3982237.72      	3682937.69      
 P-892           	3981790.84      	3682740.81      
 P-892           	3981478.32      	3682593.94      
 P-892           	3980981.46      	3682362.69      
 P-892           	3980878.35      	3682290.82      
 P-892           	3980753.34      	3682203.31      
 P-892           	3980275.23      	3681781.43      
 P-892           	3980043.96      	3681547.07      
 P-892           	3979897.10      	3681422.06      
 P-892           	3979612.71      	3681168.94      
 P-892           	3979453.34      	3681034.57      
 P-892           	3979134.60      	3680681.44      
 P-892           	3978706.47      	3680222.06      
 P-892           	3978362.71      	3679862.69      
 P-892           	3978027.70      	3679507.37      
 P-892           	3977995.24      	3679466.78      
 P-893           	3942216.00      	3710924.77      
 P-893           	3942994.14      	3711909.15      
 P-893           	3943831.63      	3712977.89      
 P-893           	3944516.01      	3713846.64      
 P-893           	3944672.27      	3714081.01      
 P-893           	3944716.00      	3714193.52      
 P-893           	3944834.76      	3714556.02      
 P-894           	3936727.47      	3709553.24      
 P-894           	3936061.84      	3710928.23      
 P-894           	3935921.22      	3711187.62      
 P-894           	3935864.96      	3711162.62      
 P-894           	3935732.31      	3711429.91      
 P-894           	3935655.60      	3711584.49      
 P-894           	3935605.60      	3711662.62      
 P-894           	3935411.85      	3711796.99      
 P-894           	3935096.21      	3712059.49      
 P-894           	3934839.96      	3712243.87      
 P-894           	3934752.47      	3712290.74      
 P-894           	3934408.72      	3712431.37      
 P-894           	3933302.46      	3712831.36      
 P-894           	3933043.09      	3712937.62      
 P-894           	3932958.72      	3712978.24      
 P-894           	3932933.72      	3713037.61      
 P-894           	3932943.09      	3713309.49      
 P-894           	3932958.72      	3713943.88      
 P-894           	3932955.59      	3714243.87      
 P-894           	3932930.59      	3714300.11      
 P-894           	3932427.45      	3714718.85      
 P-9             	3962439.07      	3696812.72      
 P-90            	3958282.65      	3697231.57      
 P-903           	3968852.48      	3708273.23      
 P-903           	3968864.68      	3708269.73      
 P-903           	3968876.19      	3708290.16      
 P-903           	3968933.01      	3708390.95      
 P-904           	3965657.45      	3687985.05      
 P-906           	3967977.11      	3699306.08      
 P-906           	3967977.11      	3699310.48      
 P-908           	3957781.90      	3690841.48      
 P-908           	3958184.03      	3690875.54      
 P-908           	3958306.44      	3690885.99      
 P-908           	3958417.48      	3690882.51      
 P-908           	3958664.19      	3690819.50      
 P-909           	3971501.41      	3700284.45      
 P-91            	3966579.26      	3701934.85      
 P-92            	3971285.51      	3703469.36      
 P-92            	3971209.01      	3703497.62      
 P-93            	3972795.89      	3704401.53      
 P-93            	3972746.12      	3704320.59      
 P-93            	3972689.22      	3704151.25      
 P-93            	3972667.80      	3704027.40      
 P-93            	3972548.23      	3703854.52      
 P-93            	3972362.35      	3703793.70      
 P-93            	3972175.12      	3703554.38      
 P-94            	3963697.86      	3698478.95      
 P-95            	3964831.20      	3705340.07      
 P-95            	3964833.39      	3705339.50      
 P-96            	3965016.01      	3703124.09      
 P-96            	3965142.53      	3703132.15      
 P-96            	3965152.27      	3703146.44      
 P-96            	3965319.22      	3703163.05      
 P-99            	3965025.16      	3702999.08      
 P-99            	3965041.02      	3702989.16      

[LABELS]
;X-Coord           Y-Coord          Label & Anchor Node

[BACKDROP]
 DIMENSIONS     	3923762.02      	3676962.15      	4006077.24      	3729890.85      
 UNITS          	None
 FILE           	
 OFFSET         	0.00            	0.00            

[END]
