[TITLE]


[JUNCTIONS]
;ID              	Elev        	Demand      	Pattern         
 I-1A            	689         	0           	                	;
 I-1B            	652.9       	0           	                	;
 I-2B            	636.5       	0           	                	;
 I-3B            	702.1       	0           	                	;
 I-4A            	616.8       	0           	                	;
 I-4B            	659.5       	0           	                	;
 I-6B            	669.3       	0           	                	;
 I-AV-1          	593.8       	0           	                	;
 I-AV-10         	620.1       	0           	                	;
 I-AV-100        	613.5       	0           	                	;
 I-AV-101        	620.1       	0           	                	;
 I-AV-102        	636.5       	0           	                	;
 I-AV-103        	616.8       	0           	                	;
 I-AV-104        	629.9       	0           	                	;
 I-AV-105        	633.2       	0           	                	;
 I-AV-106        	603.7       	0           	                	;
 I-AV-107        	616.8       	0           	                	;
 I-AV-108        	646.3       	0           	                	;
 I-AV-109        	626.6       	0           	                	;
 I-AV-11         	682.4       	0           	                	;
 I-AV-110        	616.8       	0           	                	;
 I-AV-111        	639.8       	0           	                	;
 I-AV-112        	626.6       	0           	                	;
 I-AV-113        	623.4       	0           	                	;
 I-AV-114        	639.8       	0           	                	;
 I-AV-115        	662.7       	0           	                	;
 I-AV-116        	656.2       	0           	                	;
 I-AV-117        	620.1       	0           	                	;
 I-AV-118        	669.3       	0           	                	;
 I-AV-119        	646.3       	0           	                	;
 I-AV-12         	633.2       	0           	                	;
 I-AV-120        	616.8       	0           	                	;
 I-AV-121        	662.7       	0           	                	;
 I-AV-122        	649.6       	0           	                	;
 I-AV-123        	866.1       	0           	                	;
 I-AV-124        	1069.6      	0           	                	;
 I-AV-125        	807.1       	0           	                	;
 I-AV-126        	780.8       	0           	                	;
 I-AV-127        	721.8       	0           	                	;
 I-AV-128        	1049.9      	0           	                	;
 I-AV-129        	1177.8      	0           	                	;
 I-AV-13         	715.2       	0           	                	;
 I-AV-130        	689         	0           	                	;
 I-AV-131        	669.3       	0           	                	;
 I-AV-132        	620.1       	0           	                	;
 I-AV-133        	629.9       	0           	                	;
 I-AV-134        	1200.8      	0           	                	;
 I-AV-135        	682.4       	0           	                	;
 I-AV-136        	751.3       	0           	                	;
 I-AV-137        	616.8       	0           	                	;
 I-AV-138        	607         	0           	                	;
 I-AV-139        	636.5       	0           	                	;
 I-AV-14         	662.7       	0           	                	;
 I-AV-140        	590.6       	0           	                	;
 I-AV-141        	629.9       	0           	                	;
 I-AV-142        	593.8       	0           	                	;
 I-AV-143        	656.2       	0           	                	;
 I-AV-144        	662.7       	0           	                	;
 I-AV-145        	600.4       	0           	                	;
 I-AV-146        	659.5       	0           	                	;
 I-AV-147        	629.9       	0           	                	;
 I-AV-148        	613.5       	0           	                	;
 I-AV-149        	603.7       	0           	                	;
 I-AV-15         	780.8       	0           	                	;
 I-AV-150        	616.8       	0           	                	;
 I-AV-151        	623.4       	0           	                	;
 I-AV-152        	876         	0           	                	;
 I-AV-153        	830.1       	0           	                	;
 I-AV-154        	662.7       	0           	                	;
 I-AV-155        	705.4       	0           	                	;
 I-AV-156        	702.1       	0           	                	;
 I-AV-157        	666         	0           	                	;
 I-AV-158        	616.8       	0           	                	;
 I-AV-159        	695.5       	0           	                	;
 I-AV-16         	790.7       	0           	                	;
 I-AV-160        	662.7       	0           	                	;
 I-AV-161        	633.2       	0           	                	;
 I-AV-162        	672.6       	0           	                	;
 I-AV-163        	629.9       	0           	                	;
 I-AV-164        	643         	0           	                	;
 I-AV-165        	662.7       	0           	                	;
 I-AV-166        	633.2       	0           	                	;
 I-AV-167        	636.5       	0           	                	;
 I-AV-17         	646.3       	0           	                	;
 I-AV-18         	646.2       	0           	                	;
 I-AV-19         	675.9       	0           	                	;
 I-AV-2          	646.3       	0           	                	;
 I-AV-20         	695.5       	0           	                	;
 I-AV-21         	597.1       	0           	                	;
 I-AV-22         	672.6       	0           	                	;
 I-AV-23         	659.5       	0           	                	;
 I-AV-24         	682.4       	0           	                	;
 I-AV-25         	672.6       	0           	                	;
 I-AV-26         	666         	0           	                	;
 I-AV-27         	666         	0           	                	;
 I-AV-28         	669.3       	0           	                	;
 I-AV-29         	685.7       	0           	                	;
 I-AV-3          	629.9       	0           	                	;
 I-AV-30         	672.6       	0           	                	;
 I-AV-31         	643         	0           	                	;
 I-AV-32         	636.5       	0           	                	;
 I-AV-33         	784.1       	0           	                	;
 I-AV-34         	633.2       	0           	                	;
 I-AV-35         	731.6       	0           	                	;
 I-AV-36         	623.4       	0           	                	;
 I-AV-37         	636.5       	0           	                	;
 I-AV-38         	715.2       	0           	                	;
 I-AV-39         	639.8       	0           	                	;
 I-AV-4          	636.5       	0           	                	;
 I-AV-40         	643         	0           	                	;
 I-AV-41         	636.5       	0           	                	;
 I-AV-42         	623.4       	0           	                	;
 I-AV-43         	623.4       	0           	                	;
 I-AV-44         	636.5       	0           	                	;
 I-AV-45         	836.6       	0           	                	;
 I-AV-46         	711.9       	0           	                	;
 I-AV-47         	643         	0           	                	;
 I-AV-48         	643         	0           	                	;
 I-AV-49         	643         	0           	                	;
 I-AV-5          	613.5       	0           	                	;
 I-AV-50         	652.9       	0           	                	;
 I-AV-51         	695.5       	0           	                	;
 I-AV-52         	692.3       	0           	                	;
 I-AV-53         	652.9       	0           	                	;
 I-AV-54         	682.4       	0           	                	;
 I-AV-55         	692.3       	0           	                	;
 I-AV-56         	869.4       	0           	                	;
 I-AV-57         	675.9       	0           	                	;
 I-AV-58         	741.5       	0           	                	;
 I-AV-59         	787.4       	0           	                	;
 I-AV-6          	629.9       	0           	                	;
 I-AV-60         	977.7       	0           	                	;
 I-AV-61         	961.3       	0           	                	;
 I-AV-62         	692.3       	0           	                	;
 I-AV-63         	692.3       	0           	                	;
 I-AV-64         	695.5       	0           	                	;
 I-AV-65         	702.1       	0           	                	;
 I-AV-66         	669.3       	0           	                	;
 I-AV-67         	731.6       	0           	                	;
 I-AV-68         	685.7       	0           	                	;
 I-AV-69         	669.3       	0           	                	;
 I-AV-7          	620.1       	0           	                	;
 I-AV-70         	708.7       	0           	                	;
 I-AV-71         	675.9       	0           	                	;
 I-AV-72         	666         	0           	                	;
 I-AV-73         	679.1       	0           	                	;
 I-AV-74         	692.3       	0           	                	;
 I-AV-75         	679.1       	0           	                	;
 I-AV-76         	734.9       	0           	                	;
 I-AV-77         	639.8       	0           	                	;
 I-AV-78         	685.7       	0           	                	;
 I-AV-79         	675.9       	0           	                	;
 I-AV-8          	803.8       	0           	                	;
 I-AV-80         	685.7       	0           	                	;
 I-AV-81         	774.3       	0           	                	;
 I-AV-82         	761.2       	0           	                	;
 I-AV-83         	774.3       	0           	                	;
 I-AV-84         	764.4       	0           	                	;
 I-AV-85         	780.8       	0           	                	;
 I-AV-86         	679.1       	0           	                	;
 I-AV-87         	702.1       	0           	                	;
 I-AV-88         	662.7       	0           	                	;
 I-AV-89         	672.6       	0           	                	;
 I-AV-9          	607         	0           	                	;
 I-AV-90         	672.6       	0           	                	;
 I-AV-91         	708.7       	0           	                	;
 I-AV-92         	692.3       	0           	                	;
 I-AV-93         	780.8       	0           	                	;
 I-AV-94         	702.1       	0           	                	;
 I-AV-95         	626.6       	0           	                	;
 I-AV-96         	734.9       	0           	                	;
 I-AV-97         	711.9       	0           	                	;
 I-AV-98         	633.2       	0           	                	;
 I-AV-99         	675.9       	0           	                	;
 I-BIG_ELKa      	774.3       	0           	                	;
 I-FASTLANE      	741.5       	0           	                	;
 I-P292          	695.5       	0           	                	;
 I-WTP           	695.5       	0           	                	;
 J-1             	646.3       	0.1         	2               	;
 J-10            	820.2       	0           	                	;
 J-100           	659.5       	2.5         	1               	;
 J-101           	692.3       	5.3         	1               	;
 J-102           	689         	2.3         	1               	;
 J-103           	1049.9      	0           	                	;
 J-104           	1017.1      	5.5         	1               	;
 J-105           	725.1       	4.6         	1               	;
 J-106           	685.7       	2.5         	1               	;
 J-107           	718.5       	2.8         	1               	;
 J-108           	921.9       	0.7         	1               	;
 J-109           	902.2       	0.7         	1               	;
 J-11            	643         	0.9         	1               	;
 J-110           	721.8       	4.6         	1               	;
 J-111           	669.3       	1.7         	1               	;
 J-112           	728.4       	1           	1               	;
 J-113           	682.4       	3.5         	1               	;
 J-114           	738.2       	1           	1               	;
 J-115           	643         	2           	1               	;
 J-116           	738.2       	1.6         	1               	;
 J-117           	761.2       	0.8         	1               	;
 J-118           	774.3       	0.3         	1               	;
 J-119           	705.4       	8.6         	1               	;
 J-12            	646.3       	0.6         	1               	;
 J-120           	656.2       	1.2         	1               	;
 J-121           	689         	1.2         	1               	;
 J-122           	679.1       	1           	1               	;
 J-123           	659.5       	2           	1               	;
 J-124           	685.7       	3.8         	1               	;
 J-125           	734.9       	1.5         	1               	;
 J-126           	692.3       	3.3         	1               	;
 J-127           	715.2       	2.8         	1               	;
 J-128           	698.8       	2.5         	1               	;
 J-129           	741.5       	1           	1               	;
 J-13            	764.4       	2.8         	1               	;
 J-130           	689         	0           	                	;
 J-131           	692.3       	2.1         	1               	;
 J-132           	666         	0.7         	1               	;
 J-133           	669.3       	0.9         	1               	;
 J-134           	698.8       	7.8         	1               	;
 J-135           	744.8       	2.2         	1               	;
 J-136           	869.4       	4.1         	1               	;
 J-137           	958         	0.9         	1               	;
 J-138           	889.1       	1.7         	1               	;
 J-139           	643         	3.1         	1               	;
 J-14            	757.9       	1.6         	1               	;
 J-140           	721.8       	0.9         	1               	;
 J-141           	679.1       	0.3         	1               	;
 J-142           	690         	0           	                	;
 J-143           	729.6       	0           	                	;
 J-144           	689         	1           	1               	;
 J-145           	636.5       	2.2         	1               	;
 J-146           	711.9       	0.7         	1               	;
 J-147           	748         	0           	                	;
 J-148           	721.8       	2.5         	1               	;
 J-149           	698.8       	2.3         	1               	;
 J-15            	659.5       	1.7         	1               	;
 J-150           	659.5       	0.4         	1               	;
 J-151           	1063        	3.9         	1               	;
 J-152           	702.1       	6.6         	1               	;
 J-153           	721.8       	5.9         	1               	;
 J-154           	643         	1.7         	1               	;
 J-155           	659.5       	1.4         	1               	;
 J-156           	711.9       	2.6         	1               	;
 J-157           	734.9       	0.4         	1               	;
 J-158           	692.3       	3.7         	1               	;
 J-159           	603.7       	4.3         	1               	;
 J-16            	816.9       	1.1         	1               	;
 J-160           	708.7       	5           	1               	;
 J-161           	685.7       	3.3         	1               	;
 J-162           	675.9       	1.9         	1               	;
 J-163           	702.1       	5.3         	1               	;
 J-164           	689         	0.6         	1               	;
 J-165           	666         	2.2         	1               	;
 J-166           	659.5       	1.5         	1               	;
 J-167           	879.3       	4.3         	1               	;
 J-168           	669.3       	2           	1               	;
 J-169           	666         	8.4         	1               	;
 J-17            	662.7       	1.7         	1               	;
 J-170           	597.1       	3.2         	1               	;
 J-171           	695.5       	1.2         	1               	;
 J-172           	666         	1.6         	1               	;
 J-173           	685.7       	4           	1               	;
 J-174           	931.8       	2.6         	1               	;
 J-175           	695.5       	2.1         	1               	;
 J-176           	646.2       	0.8         	1               	;
 J-177           	652.9       	2.8         	1               	;
 J-178           	636.5       	4.3         	1               	;
 J-179           	636.5       	2.2         	1               	;
 J-18            	708.7       	0.7         	1               	;
 J-180           	639.8       	0.8         	1               	;
 J-181           	593.8       	2           	1               	;
 J-182           	603.7       	0.9         	1               	;
 J-183           	646.3       	5.9         	1               	;
 J-184           	912.1       	3.6         	1               	;
 J-185           	662.7       	0.9         	1               	;
 J-186           	662.7       	5.6         	1               	;
 J-187           	725.1       	1           	1               	;
 J-188           	662.7       	7.4         	1               	;
 J-189           	620.1       	0.9         	1               	;
 J-19            	695.5       	2.3         	1               	;
 J-190           	652.9       	0.4         	1               	;
 J-191           	682.4       	3.9         	1               	;
 J-192           	748         	3           	1               	;
 J-193           	616.8       	2.4         	1               	;
 J-194           	662.7       	1.8         	1               	;
 J-195           	662.7       	0.8         	1               	;
 J-196           	761.2       	20.4        	1               	;
 J-197           	764.4       	9.9         	1               	;
 J-198           	672.6       	1.8         	1               	;
 J-199           	751.3       	3.1         	1               	;
 J-2             	800.5       	0.5         	1               	;
 J-20            	685.7       	1.2         	1               	;
 J-200           	702.1       	2.4         	1               	;
 J-201           	610.2       	0.8         	1               	;
 J-202           	715.2       	0.4         	1               	;
 J-203           	803.8       	3.7         	1               	;
 J-204           	761.2       	2.8         	1               	;
 J-205           	751.3       	0.8         	1               	;
 J-206           	679.1       	1.2         	1               	;
 J-207           	669.3       	1.3         	1               	;
 J-208           	685.7       	3.7         	1               	;
 J-209           	761.2       	3.7         	1               	;
 J-21            	948.2       	0.1         	1               	;
 J-210           	623.4       	2.8         	1               	;
 J-211           	649.6       	0.7         	1               	;
 J-212           	620.1       	10.9        	1               	;
 J-213           	705.4       	6.8         	1               	;
 J-214           	839.9       	2.3         	1               	;
 J-215           	787.4       	6.2         	1               	;
 J-216           	620.1       	6.9         	1               	;
 J-217           	757.9       	7.4         	1               	;
 J-218           	689         	7.5         	1               	;
 J-219           	610.2       	11.2        	1               	;
 J-22            	987.5       	0.5         	1               	;
 J-220           	646.3       	2.4         	1               	;
 J-221           	616.8       	4.8         	1               	;
 J-222           	672.6       	20.1        	1               	;
 J-223           	738.2       	5.4         	1               	;
 J-224           	705.4       	1.2         	1               	;
 J-225           	816.9       	7.7         	1               	;
 J-226           	849.7       	0.6         	1               	;
 J-227           	636.5       	0.3         	1               	;
 J-228           	675.9       	1.1         	1               	;
 J-229           	669.3       	3.1         	1               	;
 J-23            	646.3       	4.6         	1               	;
 J-230           	767.7       	1.9         	1               	;
 J-231           	685.7       	2.3         	1               	;
 J-232           	652.9       	3.2         	1               	;
 J-233           	646.3       	1.2         	1               	;
 J-234           	689         	1           	1               	;
 J-235           	695.5       	0.9         	1               	;
 J-236           	580.7       	12.6        	1               	;
 J-237           	623.4       	4.2         	1               	;
 J-238           	711.9       	6.5         	1               	;
 J-239           	869.4       	1.3         	1               	;
 J-24            	639.8       	2.1         	1               	;
 J-240           	646.3       	0.5         	1               	;
 J-241           	666         	0.2         	1               	;
 J-242           	685.7       	1.1         	1               	;
 J-243           	705.4       	0.5         	1               	;
 J-244           	715.2       	0.3         	1               	;
 J-245           	639.8       	16          	1               	;
 J-246           	603.7       	4.3         	1               	;
 J-247           	643         	4.9         	1               	;
 J-248           	590.6       	4.4         	1               	;
 J-249           	613.5       	1.9         	1               	;
 J-25            	649.6       	0.9         	1               	;
 J-250           	610.2       	5.2         	1               	;
 J-251           	692.3       	0.4         	1               	;
 J-252           	666         	3.5         	1               	;
 J-253           	767.7       	2.3         	1               	;
 J-254           	669.3       	2.7         	1               	;
 J-255           	666         	1           	1               	;
 J-256           	649.6       	4.5         	1               	;
 J-257           	718.5       	1.9         	1               	;
 J-258           	836.6       	1.6         	1               	;
 J-259           	652.9       	0.5         	1               	;
 J-26            	695.5       	0.6         	1               	;
 J-260           	685.7       	0.2         	1               	;
 J-261           	675.9       	0.8         	1               	;
 J-262           	849.7       	0.8         	1               	;
 J-263           	830.1       	0.8         	1               	;
 J-264           	705.4       	1.2         	1               	;
 J-265           	711.9       	0.5         	1               	;
 J-266           	912.1       	3.9         	1               	;
 J-267           	666         	7           	1               	;
 J-268           	659.5       	3.9         	1               	;
 J-269           	725.1       	0.5         	1               	;
 J-27            	695.5       	1.6         	1               	;
 J-270           	820.2       	1.5         	1               	;
 J-271           	659.5       	2           	1               	;
 J-272           	689         	1.8         	1               	;
 J-273           	656.2       	5.9         	1               	;
 J-274           	757.9       	1.5         	1               	;
 J-275           	777.6       	0.2         	1               	;
 J-276           	849.7       	1.3         	1               	;
 J-277           	794         	1.8         	1               	;
 J-278           	853         	1.8         	1               	;
 J-279           	590.6       	3.4         	1               	;
 J-28            	813.7       	0.7         	1               	;
 J-280           	695.5       	0.6         	1               	;
 J-281           	682.4       	0.1         	1               	;
 J-282           	705.4       	1.5         	1               	;
 J-283           	751.3       	0           	                	;
 J-284           	698.8       	1.9         	1               	;
 J-285           	731.6       	0.9         	1               	;
 J-286           	666         	4.4         	1               	;
 J-287           	695.5       	2.1         	1               	;
 J-288           	593.8       	1           	1               	;
 J-289           	711.9       	1.9         	1               	;
 J-29            	744.8       	0           	                	;
 J-290           	603.7       	3.8         	1               	;
 J-291           	600.4       	1.7         	1               	;
 J-292           	610.2       	2.5         	1               	;
 J-293           	636.5       	0.6         	1               	;
 J-294           	1115.5      	0.1         	1               	;
 J-295           	643         	0.4         	1               	;
 J-296           	639.8       	5.3         	1               	;
 J-297           	659.5       	2.6         	1               	;
 J-298           	623.4       	13.2        	1               	;
 J-299           	639.8       	1.7         	1               	;
 J-3             	1200.8      	2.9         	1               	;
 J-30            	643         	5.9         	1               	;
 J-300           	767.7       	4.9         	1               	;
 J-301           	689         	5.1         	1               	;
 J-302           	600.4       	11.2        	1               	;
 J-303           	977.7       	9.1         	1               	;
 J-304           	695.5       	0.4         	1               	;
 J-305           	987.5       	1.5         	1               	;
 J-306           	626.6       	4.1         	1               	;
 J-307           	672.6       	4.6         	1               	;
 J-308           	672.6       	4.5         	1               	;
 J-309           	636.5       	0.9         	1               	;
 J-31            	705.4       	1.9         	1               	;
 J-310           	636.5       	6.9         	1               	;
 J-311           	616.8       	1           	1               	;
 J-312           	616.8       	0.3         	1               	;
 J-313           	646.3       	0.6         	1               	;
 J-314           	721.8       	0.4         	1               	;
 J-315           	669.3       	1.8         	1               	;
 J-316           	748         	4.1         	1               	;
 J-317           	666         	2.9         	1               	;
 J-318           	900         	1.6         	1               	;
 J-319           	738.2       	11.6        	1               	;
 J-32            	684.1       	3.8         	1               	;
 J-320           	646.3       	1.2         	1               	;
 J-321           	649.6       	4.6         	1               	;
 J-322           	639.8       	0.9         	1               	;
 J-323           	655.2       	1.8         	1               	;
 J-324           	659.3       	0.2         	1               	;
 J-325           	658.1       	4.6         	1               	;
 J-326           	720.4       	4.1         	1               	;
 J-327           	926         	0.8         	1               	;
 J-328           	706.3       	4.9         	1               	;
 J-329           	682         	3.2         	1               	;
 J-33            	677.6       	1.4         	1               	;
 J-330           	690         	0           	                	;
 J-331           	601.6       	3.2         	1               	;
 J-332           	652.9       	1.7         	1               	;
 J-333           	624.8       	0.4         	1               	;
 J-334           	700.7       	0.4         	1               	;
 J-335           	921.2       	2.5         	1               	;
 J-336           	738.9       	0.9         	1               	;
 J-337           	693.3       	1.4         	1               	;
 J-338           	824.5       	1.5         	1               	;
 J-339           	760.2       	0.9         	1               	;
 J-34            	654.2       	6.9         	1               	;
 J-340           	626.1       	1.2         	1               	;
 J-341           	656         	0.5         	1               	;
 J-342           	646.5       	1.2         	1               	;
 J-343           	647         	0.2         	1               	;
 J-344           	621.5       	3.1         	1               	;
 J-345           	651.7       	2.5         	1               	;
 J-346           	774.3       	1.7         	1               	;
 J-347           	711.4       	3.3         	1               	;
 J-348           	608.2       	7.5         	1               	;
 J-349           	689.1       	1.8         	1               	;
 J-35            	781.1       	0.3         	1               	;
 J-350           	716.9       	0.5         	1               	;
 J-351           	734.1       	1.3         	1               	;
 J-352           	697.9       	3           	1               	;
 J-353           	636.6       	0.3         	1               	;
 J-354           	625.5       	0.7         	1               	;
 J-355           	697.2       	1.3         	1               	;
 J-356           	753.7       	1.3         	1               	;
 J-357           	701.9       	0.5         	1               	;
 J-358           	864.6       	0.8         	1               	;
 J-359           	690.1       	2.4         	1               	;
 J-36            	865.6       	0.7         	1               	;
 J-360           	650.1       	1.5         	1               	;
 J-361           	793         	1.8         	1               	;
 J-362           	782.7       	1           	1               	;
 J-363           	851.5       	7.1         	1               	;
 J-364           	1051.2      	2.8         	1               	;
 J-365           	734.3       	0.5         	1               	;
 J-366           	783.8       	1.9         	1               	;
 J-367           	623.4       	0.2         	1               	;
 J-368           	670.5       	1.1         	1               	;
 J-369           	664         	1.5         	1               	;
 J-37            	716.8       	1.8         	1               	;
 J-370           	744         	2           	1               	;
 J-371           	629.5       	3.4         	1               	;
 J-372           	680.1       	3.2         	1               	;
 J-373           	666.6       	0.6         	1               	;
 J-374           	652         	5.2         	1               	;
 J-375           	616.3       	2           	1               	;
 J-376           	648.3       	2.3         	1               	;
 J-377           	684         	11.9        	1               	;
 J-378           	636.7       	0.8         	1               	;
 J-379           	615         	1.9         	1               	;
 J-38            	830.7       	0.4         	1               	;
 J-380           	691.6       	4.1         	1               	;
 J-381           	623.8       	11          	1               	;
 J-382           	664.6       	0.3         	1               	;
 J-383           	741.8       	1.2         	1               	;
 J-384           	647.5       	1           	1               	;
 J-385           	656.3       	2.5         	1               	;
 J-386           	724.9       	1.9         	1               	;
 J-387           	652.6       	3.9         	1               	;
 J-388           	712.1       	1.1         	1               	;
 J-389           	647.6       	3.2         	1               	;
 J-39            	773.1       	9.5         	1               	;
 J-390           	679.9       	0.2         	1               	;
 J-391           	650.9       	0.2         	1               	;
 J-392           	790.6       	0.9         	1               	;
 J-393           	661         	4.3         	1               	;
 J-394           	790.5       	0.8         	1               	;
 J-395           	830.5       	3.8         	1               	;
 J-396           	681.1       	1.3         	1               	;
 J-397           	803.2       	2.8         	1               	;
 J-398           	763.6       	7.6         	1               	;
 J-399           	718.7       	5.5         	1               	;
 J-4             	1212.6      	2.8         	1               	;
 J-40            	848.2       	4.6         	1               	;
 J-400           	632.4       	3.1         	1               	;
 J-401           	831.3       	3.8         	1               	;
 J-402           	720.6       	0.3         	1               	;
 J-403           	611.9       	9.4         	1               	;
 J-404           	838.1       	5.1         	1               	;
 J-405           	720.1       	0.7         	1               	;
 J-406           	712.4       	3.5         	1               	;
 J-407           	790.9       	1.5         	1               	;
 J-408           	851.5       	1           	1               	;
 J-409           	754.4       	0.7         	1               	;
 J-41            	921.5       	5.5         	1               	;
 J-410           	692.9       	7.1         	1               	;
 J-411           	778.8       	6.4         	1               	;
 J-412           	721.6       	2.2         	1               	;
 J-413           	806.4       	0.9         	1               	;
 J-414           	781.2       	0.4         	1               	;
 J-415           	680.4       	0.9         	1               	;
 J-416           	688.6       	0.7         	1               	;
 J-417           	719.8       	3.5         	1               	;
 J-418           	824.9       	1.3         	1               	;
 J-419           	726.4       	4.1         	1               	;
 J-42            	753.4       	7.7         	1               	;
 J-420           	814.6       	1           	1               	;
 J-421           	815.5       	2.5         	1               	;
 J-422           	957.9       	1.7         	1               	;
 J-423           	1073.3      	2.4         	1               	;
 J-424           	705.7       	3.8         	1               	;
 J-425           	718.3       	2.4         	1               	;
 J-426           	718.5       	0           	                	;
 J-427           	824.4       	0.6         	1               	;
 J-428           	731         	0.4         	1               	;
 J-429           	703.2       	0.4         	1               	;
 J-43            	627.8       	2.4         	1               	;
 J-430           	731.7       	1.9         	1               	;
 J-431           	661.6       	1.2         	1               	;
 J-432           	747.4       	2.6         	1               	;
 J-433           	781.1       	2.1         	1               	;
 J-434           	640.3       	0.7         	1               	;
 J-435           	699         	0.8         	1               	;
 J-436           	684.6       	1.5         	1               	;
 J-437           	651         	0.1         	1               	;
 J-438           	667         	2           	1               	;
 J-439           	0           	0           	                	;
 J-44            	773.1       	0.8         	1               	;
 J-440           	0           	0           	                	;
 J-45            	643.2       	1.3         	1               	;
 J-46            	873.8       	2.6         	1               	;
 J-47            	639         	2.4         	1               	;
 J-48            	684.4       	1.6         	1               	;
 J-49            	644.2       	1.2         	1               	;
 J-5             	655         	2.2         	1               	;
 J-50            	637.6       	2.3         	1               	;
 J-51            	640.8       	2.8         	1               	;
 J-52            	704.6       	7.9         	1               	;
 J-53            	709.8       	8.9         	1               	;
 J-54            	622.7       	2.4         	1               	;
 J-55            	630.1       	2.9         	1               	;
 J-56            	823.8       	1.3         	1               	;
 J-57            	719.7       	5.6         	1               	;
 J-58            	698         	15.2        	1               	;
 J-59            	813.3       	2.4         	1               	;
 J-6             	687.9       	4.9         	1               	;
 J-60            	932         	1.7         	1               	;
 J-61            	741.3       	6.8         	1               	;
 J-62            	733.9       	0           	                	;
 J-63            	689.6       	2.3         	1               	;
 J-64            	622.7       	3.7         	1               	;
 J-65            	637.9       	3.2         	1               	;
 J-66            	711.9       	15.6        	1               	;
 J-67            	816.9       	2.7         	1               	;
 J-68            	626.6       	37.5        	1               	;
 J-69            	682.4       	22.5        	1               	;
 J-7             	636.5       	1.9         	1               	;
 J-70            	643         	10.4        	1               	;
 J-71            	1115.5      	0.3         	1               	;
 J-72            	711.9       	9.3         	1               	;
 J-73            	649.6       	13.5        	1               	;
 J-74            	639.8       	16.4        	1               	;
 J-75            	597.1       	11.5        	1               	;
 J-76            	976.9       	1.1         	1               	;
 J-77            	889.1       	6           	1               	;
 J-78            	1010.5      	0.1         	1               	;
 J-79            	961.3       	0.5         	1               	;
 J-8             	626.6       	2.4         	1               	;
 J-80            	593.8       	4.3         	1               	;
 J-81            	774.3       	8.7         	1               	;
 J-82            	643         	11.6        	1               	;
 J-83            	692.3       	0.6         	1               	;
 J-84            	643         	2.7         	1               	;
 J-85            	780.8       	0.8         	1               	;
 J-86            	649.6       	3.1         	1               	;
 J-87            	626.6       	2.1         	1               	;
 J-88            	633.2       	2.6         	1               	;
 J-89            	639.8       	0.7         	1               	;
 J-9             	1171.3      	1.3         	1               	;
 J-90            	646.3       	0.3         	1               	;
 J-91            	649.6       	1.2         	1               	;
 J-92            	652.9       	1.2         	1               	;
 J-93            	646.3       	0.7         	1               	;
 J-94            	656.2       	10.6        	1               	;
 J-95            	629.9       	1.8         	1               	;
 J-96            	777.6       	0.9         	1               	;
 J-97            	639.8       	1.8         	1               	;
 J-98            	646.3       	7.1         	1               	;
 J-99            	685.7       	7.2         	1               	;
 O-1A            	689         	0           	                	;
 O-1B            	652.9       	0           	                	;
 O-2B            	636.5       	0           	                	;
 O-3B            	702.1       	0           	                	;
 O-4A            	616.8       	0           	                	;
 O-4B            	659.5       	0           	                	;
 O-6B            	669.3       	0           	                	;
 O-AV-1          	593.8       	0           	                	;
 O-AV-10         	620.1       	0           	                	;
 O-AV-100        	613.5       	0           	                	;
 O-AV-101        	620.1       	0           	                	;
 O-AV-102        	636.5       	0           	                	;
 O-AV-103        	616.8       	0           	                	;
 O-AV-104        	629.9       	0           	                	;
 O-AV-105        	633.2       	0           	                	;
 O-AV-106        	603.7       	0           	                	;
 O-AV-107        	616.8       	0           	                	;
 O-AV-108        	646.3       	0           	                	;
 O-AV-109        	626.6       	0           	                	;
 O-AV-11         	682.4       	0           	                	;
 O-AV-110        	616.8       	0           	                	;
 O-AV-111        	639.8       	0           	                	;
 O-AV-112        	626.6       	0           	                	;
 O-AV-113        	623.4       	0           	                	;
 O-AV-114        	639.8       	0           	                	;
 O-AV-115        	662.7       	0           	                	;
 O-AV-116        	656.2       	0           	                	;
 O-AV-117        	620.1       	0           	                	;
 O-AV-118        	669.3       	0           	                	;
 O-AV-119        	646.3       	0           	                	;
 O-AV-12         	633.2       	0           	                	;
 O-AV-120        	616.8       	0           	                	;
 O-AV-121        	662.7       	0           	                	;
 O-AV-122        	649.6       	0           	                	;
 O-AV-123        	866.1       	0           	                	;
 O-AV-124        	1069.6      	0           	                	;
 O-AV-125        	807.1       	0           	                	;
 O-AV-126        	780.8       	0           	                	;
 O-AV-127        	721.8       	0           	                	;
 O-AV-128        	1049.9      	0           	                	;
 O-AV-129        	1177.8      	0           	                	;
 O-AV-13         	715.2       	0           	                	;
 O-AV-130        	689         	0           	                	;
 O-AV-131        	669.3       	0           	                	;
 O-AV-132        	620.1       	0           	                	;
 O-AV-133        	629.9       	0           	                	;
 O-AV-134        	1200.8      	0           	                	;
 O-AV-135        	682.4       	0           	                	;
 O-AV-136        	751.3       	0           	                	;
 O-AV-137        	616.8       	0           	                	;
 O-AV-138        	607         	0           	                	;
 O-AV-139        	636.5       	0           	                	;
 O-AV-14         	662.7       	0           	                	;
 O-AV-140        	590.6       	0           	                	;
 O-AV-141        	629.9       	0           	                	;
 O-AV-142        	593.8       	0           	                	;
 O-AV-143        	656.2       	0           	                	;
 O-AV-144        	662.7       	0           	                	;
 O-AV-145        	600.4       	0           	                	;
 O-AV-146        	659.5       	0           	                	;
 O-AV-147        	629.9       	0           	                	;
 O-AV-148        	613.5       	0           	                	;
 O-AV-149        	603.7       	0           	                	;
 O-AV-15         	780.8       	0           	                	;
 O-AV-150        	616.8       	0           	                	;
 O-AV-151        	623.4       	0           	                	;
 O-AV-152        	876         	0           	                	;
 O-AV-153        	830.1       	0           	                	;
 O-AV-154        	662.7       	0           	                	;
 O-AV-155        	705.4       	0           	                	;
 O-AV-156        	702.1       	0           	                	;
 O-AV-157        	666         	0           	                	;
 O-AV-158        	616.8       	0           	                	;
 O-AV-159        	695.5       	0           	                	;
 O-AV-16         	790.7       	0           	                	;
 O-AV-160        	662.7       	0           	                	;
 O-AV-161        	633.2       	0           	                	;
 O-AV-162        	672.6       	0           	                	;
 O-AV-163        	629.9       	0           	                	;
 O-AV-164        	643         	0           	                	;
 O-AV-165        	662.7       	0           	                	;
 O-AV-166        	633.2       	0           	                	;
 O-AV-167        	636.5       	0           	                	;
 O-AV-17         	646.3       	0           	                	;
 O-AV-18         	646.2       	0           	                	;
 O-AV-19         	675.9       	0           	                	;
 O-AV-2          	646.3       	0           	                	;
 O-AV-20         	695.5       	0           	                	;
 O-AV-21         	597.1       	0           	                	;
 O-AV-22         	672.6       	0           	                	;
 O-AV-23         	659.5       	0           	                	;
 O-AV-24         	682.4       	0           	                	;
 O-AV-25         	672.6       	0           	                	;
 O-AV-26         	666         	0           	                	;
 O-AV-27         	666         	0           	                	;
 O-AV-28         	669.3       	0           	                	;
 O-AV-29         	685.7       	0           	                	;
 O-AV-3          	629.9       	0           	                	;
 O-AV-30         	672.6       	0           	                	;
 O-AV-31         	643         	0           	                	;
 O-AV-32         	636.5       	0           	                	;
 O-AV-33         	784.1       	0           	                	;
 O-AV-34         	633.2       	0           	                	;
 O-AV-35         	731.6       	0           	                	;
 O-AV-36         	623.4       	0           	                	;
 O-AV-37         	636.5       	0           	                	;
 O-AV-38         	715.2       	0           	                	;
 O-AV-39         	639.8       	0           	                	;
 O-AV-4          	636.5       	0           	                	;
 O-AV-40         	643         	0           	                	;
 O-AV-41         	636.5       	0           	                	;
 O-AV-42         	623.4       	0           	                	;
 O-AV-43         	623.4       	0           	                	;
 O-AV-44         	636.5       	0           	                	;
 O-AV-45         	836.6       	0           	                	;
 O-AV-46         	711.9       	0           	                	;
 O-AV-47         	643         	0           	                	;
 O-AV-48         	643         	0           	                	;
 O-AV-49         	643         	0           	                	;
 O-AV-5          	613.5       	0           	                	;
 O-AV-50         	652.9       	0           	                	;
 O-AV-51         	695.5       	0           	                	;
 O-AV-52         	692.3       	0           	                	;
 O-AV-53         	652.9       	0           	                	;
 O-AV-54         	682.4       	0           	                	;
 O-AV-55         	692.3       	0           	                	;
 O-AV-56         	869.4       	0           	                	;
 O-AV-57         	675.9       	0           	                	;
 O-AV-58         	741.5       	0           	                	;
 O-AV-59         	787.4       	0           	                	;
 O-AV-6          	629.9       	0           	                	;
 O-AV-60         	977.7       	0           	                	;
 O-AV-61         	961.3       	0           	                	;
 O-AV-62         	692.3       	0           	                	;
 O-AV-63         	692.3       	0           	                	;
 O-AV-64         	695.5       	0           	                	;
 O-AV-65         	702.1       	0           	                	;
 O-AV-66         	669.3       	0           	                	;
 O-AV-67         	731.6       	0           	                	;
 O-AV-68         	685.7       	0           	                	;
 O-AV-69         	669.3       	0           	                	;
 O-AV-7          	620.1       	0           	                	;
 O-AV-70         	708.7       	0           	                	;
 O-AV-71         	675.9       	0           	                	;
 O-AV-72         	666         	0           	                	;
 O-AV-73         	679.1       	0           	                	;
 O-AV-74         	692.3       	0           	                	;
 O-AV-75         	679.1       	0           	                	;
 O-AV-76         	734.9       	0           	                	;
 O-AV-77         	639.8       	0           	                	;
 O-AV-78         	685.7       	0           	                	;
 O-AV-79         	675.9       	0           	                	;
 O-AV-8          	803.8       	0           	                	;
 O-AV-80         	685.7       	0           	                	;
 O-AV-81         	774.3       	0           	                	;
 O-AV-82         	761.2       	0           	                	;
 O-AV-83         	774.3       	0           	                	;
 O-AV-84         	764.4       	0           	                	;
 O-AV-85         	780.8       	0           	                	;
 O-AV-86         	679.1       	0           	                	;
 O-AV-87         	702.1       	0           	                	;
 O-AV-88         	662.7       	0           	                	;
 O-AV-89         	672.6       	0           	                	;
 O-AV-9          	607         	0           	                	;
 O-AV-90         	672.6       	0           	                	;
 O-AV-91         	708.7       	0           	                	;
 O-AV-92         	692.3       	0           	                	;
 O-AV-93         	780.8       	0           	                	;
 O-AV-94         	702.1       	0           	                	;
 O-AV-95         	626.6       	0           	                	;
 O-AV-96         	734.9       	0           	                	;
 O-AV-97         	711.9       	0           	                	;
 O-AV-98         	633.2       	0           	                	;
 O-AV-99         	675.9       	0           	                	;
 O-BIG_ELKa      	774.3       	0           	                	;
 O-FASTLANE      	741.5       	0           	                	;
 O-P292          	695.5       	0           	                	;
 O-WTP           	695.5       	0           	                	;
 O-P-~@1A        	689         	0           	                	;
 O-P-~@1B        	652.9       	0           	                	;
 O-P-~@2B        	636.5       	0           	                	;
 O-P-~@3B        	702.1       	0           	                	;
 O-P-~@4A        	616.8       	0           	                	;
 O-P-~@4B        	659.5       	0           	                	;
 O-P-~@6B        	669.3       	0           	                	;
 O-P-~@BIG_ELKa  	774.3       	0           	                	;
 O-P-~@FASTLANE  	741.5       	0           	                	;
 O-P-~@P292      	695.5       	0           	                	;
 O-P-~@WTP       	695.5       	0           	                	;
 O-V-~@AV-1      	593.8       	0           	                	;
 O-V-~@AV-10     	620.1       	0           	                	;
 O-V-~@AV-100    	613.5       	0           	                	;
 O-V-~@AV-101    	620.1       	0           	                	;
 O-V-~@AV-102    	636.5       	0           	                	;
 O-V-~@AV-103    	616.8       	0           	                	;
 O-V-~@AV-104    	629.9       	0           	                	;
 O-V-~@AV-105    	633.2       	0           	                	;
 O-V-~@AV-106    	603.7       	0           	                	;
 O-V-~@AV-107    	616.8       	0           	                	;
 O-V-~@AV-108    	646.3       	0           	                	;
 O-V-~@AV-109    	626.6       	0           	                	;
 O-V-~@AV-11     	682.4       	0           	                	;
 O-V-~@AV-110    	616.8       	0           	                	;
 O-V-~@AV-111    	639.8       	0           	                	;
 O-V-~@AV-112    	626.6       	0           	                	;
 O-V-~@AV-113    	623.4       	0           	                	;
 O-V-~@AV-114    	639.8       	0           	                	;
 O-V-~@AV-115    	662.7       	0           	                	;
 O-V-~@AV-116    	656.2       	0           	                	;
 O-V-~@AV-117    	620.1       	0           	                	;
 O-V-~@AV-118    	669.3       	0           	                	;
 O-V-~@AV-119    	646.3       	0           	                	;
 O-V-~@AV-12     	633.2       	0           	                	;
 O-V-~@AV-120    	616.8       	0           	                	;
 O-V-~@AV-121    	662.7       	0           	                	;
 O-V-~@AV-122    	649.6       	0           	                	;
 O-V-~@AV-123    	866.1       	0           	                	;
 O-V-~@AV-124    	1069.6      	0           	                	;
 O-V-~@AV-125    	807.1       	0           	                	;
 O-V-~@AV-126    	780.8       	0           	                	;
 O-V-~@AV-127    	721.8       	0           	                	;
 O-V-~@AV-128    	1049.9      	0           	                	;
 O-V-~@AV-129    	1177.8      	0           	                	;
 O-V-~@AV-13     	715.2       	0           	                	;
 O-V-~@AV-130    	689         	0           	                	;
 O-V-~@AV-131    	669.3       	0           	                	;
 O-V-~@AV-132    	620.1       	0           	                	;
 O-V-~@AV-133    	629.9       	0           	                	;
 O-V-~@AV-134    	1200.8      	0           	                	;
 O-V-~@AV-135    	682.4       	0           	                	;
 O-V-~@AV-136    	751.3       	0           	                	;
 O-V-~@AV-137    	616.8       	0           	                	;
 O-V-~@AV-138    	607         	0           	                	;
 O-V-~@AV-139    	636.5       	0           	                	;
 O-V-~@AV-14     	662.7       	0           	                	;
 O-V-~@AV-140    	590.6       	0           	                	;
 O-V-~@AV-141    	629.9       	0           	                	;
 O-V-~@AV-142    	593.8       	0           	                	;
 O-V-~@AV-143    	656.2       	0           	                	;
 O-V-~@AV-144    	662.7       	0           	                	;
 O-V-~@AV-145    	600.4       	0           	                	;
 O-V-~@AV-146    	659.5       	0           	                	;
 O-V-~@AV-147    	629.9       	0           	                	;
 O-V-~@AV-148    	613.5       	0           	                	;
 O-V-~@AV-149    	603.7       	0           	                	;
 O-V-~@AV-15     	780.8       	0           	                	;
 O-V-~@AV-150    	616.8       	0           	                	;
 O-V-~@AV-151    	623.4       	0           	                	;
 O-V-~@AV-152    	876         	0           	                	;
 O-V-~@AV-153    	830.1       	0           	                	;
 O-V-~@AV-154    	662.7       	0           	                	;
 O-V-~@AV-155    	705.4       	0           	                	;
 O-V-~@AV-156    	702.1       	0           	                	;
 O-V-~@AV-157    	666         	0           	                	;
 O-V-~@AV-158    	616.8       	0           	                	;
 O-V-~@AV-159    	695.5       	0           	                	;
 O-V-~@AV-16     	790.7       	0           	                	;
 O-V-~@AV-160    	662.7       	0           	                	;
 O-V-~@AV-161    	633.2       	0           	                	;
 O-V-~@AV-162    	672.6       	0           	                	;
 O-V-~@AV-163    	629.9       	0           	                	;
 O-V-~@AV-164    	643         	0           	                	;
 O-V-~@AV-165    	662.7       	0           	                	;
 O-V-~@AV-166    	633.2       	0           	                	;
 O-V-~@AV-167    	636.5       	0           	                	;
 O-V-~@AV-17     	646.3       	0           	                	;
 O-V-~@AV-18     	656.2       	0           	                	;
 O-V-~@AV-19     	675.9       	0           	                	;
 O-V-~@AV-2      	646.3       	0           	                	;
 O-V-~@AV-20     	695.5       	0           	                	;
 O-V-~@AV-21     	597.1       	0           	                	;
 O-V-~@AV-22     	672.6       	0           	                	;
 O-V-~@AV-23     	659.5       	0           	                	;
 O-V-~@AV-24     	682.4       	0           	                	;
 O-V-~@AV-25     	672.6       	0           	                	;
 O-V-~@AV-26     	666         	0           	                	;
 O-V-~@AV-27     	666         	0           	                	;
 O-V-~@AV-28     	669.3       	0           	                	;
 O-V-~@AV-29     	685.7       	0           	                	;
 O-V-~@AV-3      	629.9       	0           	                	;
 O-V-~@AV-30     	672.6       	0           	                	;
 O-V-~@AV-31     	643         	0           	                	;
 O-V-~@AV-32     	636.5       	0           	                	;
 O-V-~@AV-33     	784.1       	0           	                	;
 O-V-~@AV-34     	633.2       	0           	                	;
 O-V-~@AV-35     	731.6       	0           	                	;
 O-V-~@AV-36     	623.4       	0           	                	;
 O-V-~@AV-37     	636.5       	0           	                	;
 O-V-~@AV-38     	715.2       	0           	                	;
 O-V-~@AV-39     	639.8       	0           	                	;
 O-V-~@AV-4      	636.5       	0           	                	;
 O-V-~@AV-40     	643         	0           	                	;
 O-V-~@AV-41     	636.5       	0           	                	;
 O-V-~@AV-42     	623.4       	0           	                	;
 O-V-~@AV-43     	623.4       	0           	                	;
 O-V-~@AV-44     	636.5       	0           	                	;
 O-V-~@AV-45     	836.6       	0           	                	;
 O-V-~@AV-46     	711.9       	0           	                	;
 O-V-~@AV-47     	643         	0           	                	;
 O-V-~@AV-48     	643         	0           	                	;
 O-V-~@AV-49     	643         	0           	                	;
 O-V-~@AV-5      	613.5       	0           	                	;
 O-V-~@AV-50     	652.9       	0           	                	;
 O-V-~@AV-51     	695.5       	0           	                	;
 O-V-~@AV-52     	692.3       	0           	                	;
 O-V-~@AV-53     	652.9       	0           	                	;
 O-V-~@AV-54     	682.4       	0           	                	;
 O-V-~@AV-55     	692.3       	0           	                	;
 O-V-~@AV-56     	869.4       	0           	                	;
 O-V-~@AV-57     	675.9       	0           	                	;
 O-V-~@AV-58     	741.5       	0           	                	;
 O-V-~@AV-59     	787.4       	0           	                	;
 O-V-~@AV-6      	629.9       	0           	                	;
 O-V-~@AV-60     	977.7       	0           	                	;
 O-V-~@AV-61     	961.3       	0           	                	;
 O-V-~@AV-62     	692.3       	0           	                	;
 O-V-~@AV-63     	692.3       	0           	                	;
 O-V-~@AV-64     	695.5       	0           	                	;
 O-V-~@AV-65     	702.1       	0           	                	;
 O-V-~@AV-66     	669.3       	0           	                	;
 O-V-~@AV-67     	731.6       	0           	                	;
 O-V-~@AV-68     	685.7       	0           	                	;
 O-V-~@AV-69     	669.3       	0           	                	;
 O-V-~@AV-7      	620.1       	0           	                	;
 O-V-~@AV-70     	708.7       	0           	                	;
 O-V-~@AV-71     	675.9       	0           	                	;
 O-V-~@AV-72     	666         	0           	                	;
 O-V-~@AV-73     	679.1       	0           	                	;
 O-V-~@AV-74     	692.3       	0           	                	;
 O-V-~@AV-75     	679.1       	0           	                	;
 O-V-~@AV-76     	734.9       	0           	                	;
 O-V-~@AV-77     	639.8       	0           	                	;
 O-V-~@AV-78     	685.7       	0           	                	;
 O-V-~@AV-79     	675.9       	0           	                	;
 O-V-~@AV-8      	803.8       	0           	                	;
 O-V-~@AV-80     	685.7       	0           	                	;
 O-V-~@AV-81     	774.3       	0           	                	;
 O-V-~@AV-82     	761.2       	0           	                	;
 O-V-~@AV-83     	774.3       	0           	                	;
 O-V-~@AV-84     	764.4       	0           	                	;
 O-V-~@AV-85     	780.8       	0           	                	;
 O-V-~@AV-86     	679.1       	0           	                	;
 O-V-~@AV-87     	702.1       	0           	                	;
 O-V-~@AV-88     	662.7       	0           	                	;
 O-V-~@AV-89     	672.6       	0           	                	;
 O-V-~@AV-9      	607         	0           	                	;
 O-V-~@AV-90     	672.6       	0           	                	;
 O-V-~@AV-91     	708.7       	0           	                	;
 O-V-~@AV-92     	692.3       	0           	                	;
 O-V-~@AV-93     	780.8       	0           	                	;
 O-V-~@AV-94     	702.1       	0           	                	;
 O-V-~@AV-95     	626.6       	0           	                	;
 O-V-~@AV-96     	734.9       	0           	                	;
 O-V-~@AV-97     	711.9       	0           	                	;
 O-V-~@AV-98     	633.2       	0           	                	;
 O-V-~@AV-99     	675.9       	0           	                	;
 I-P-~@1A        	689         	0           	                	;
 I-P-~@1B        	652.9       	0           	                	;
 I-P-~@2B        	636.5       	0           	                	;
 I-P-~@3B        	702.1       	0           	                	;
 I-P-~@4A        	616.8       	0           	                	;
 I-P-~@4B        	659.5       	0           	                	;
 I-P-~@6B        	669.3       	0           	                	;
 I-P-~@BIG_ELKa  	774.3       	0           	                	;
 I-P-~@FASTLANE  	741.5       	0           	                	;
 I-P-~@P292      	695.5       	0           	                	;
 I-P-~@WTP       	695.5       	0           	                	;
 I-V-~@AV-1      	593.8       	0           	                	;
 I-V-~@AV-10     	620.1       	0           	                	;
 I-V-~@AV-100    	613.5       	0           	                	;
 I-V-~@AV-101    	620.1       	0           	                	;
 I-V-~@AV-102    	636.5       	0           	                	;
 I-V-~@AV-103    	616.8       	0           	                	;
 I-V-~@AV-104    	629.9       	0           	                	;
 I-V-~@AV-105    	633.2       	0           	                	;
 I-V-~@AV-106    	603.7       	0           	                	;
 I-V-~@AV-107    	616.8       	0           	                	;
 I-V-~@AV-108    	646.3       	0           	                	;
 I-V-~@AV-109    	626.6       	0           	                	;
 I-V-~@AV-11     	682.4       	0           	                	;
 I-V-~@AV-110    	616.8       	0           	                	;
 I-V-~@AV-111    	639.8       	0           	                	;
 I-V-~@AV-112    	626.6       	0           	                	;
 I-V-~@AV-113    	623.4       	0           	                	;
 I-V-~@AV-114    	639.8       	0           	                	;
 I-V-~@AV-115    	662.7       	0           	                	;
 I-V-~@AV-116    	656.2       	0           	                	;
 I-V-~@AV-117    	620.1       	0           	                	;
 I-V-~@AV-118    	669.3       	0           	                	;
 I-V-~@AV-119    	646.3       	0           	                	;
 I-V-~@AV-12     	633.2       	0           	                	;
 I-V-~@AV-120    	616.8       	0           	                	;
 I-V-~@AV-121    	662.7       	0           	                	;
 I-V-~@AV-122    	649.6       	0           	                	;
 I-V-~@AV-123    	866.1       	0           	                	;
 I-V-~@AV-124    	1069.6      	0           	                	;
 I-V-~@AV-125    	807.1       	0           	                	;
 I-V-~@AV-126    	780.8       	0           	                	;
 I-V-~@AV-127    	721.8       	0           	                	;
 I-V-~@AV-128    	1049.9      	0           	                	;
 I-V-~@AV-129    	1177.8      	0           	                	;
 I-V-~@AV-13     	715.2       	0           	                	;
 I-V-~@AV-130    	689         	0           	                	;
 I-V-~@AV-131    	669.3       	0           	                	;
 I-V-~@AV-132    	620.1       	0           	                	;
 I-V-~@AV-133    	629.9       	0           	                	;
 I-V-~@AV-134    	1200.8      	0           	                	;
 I-V-~@AV-135    	682.4       	0           	                	;
 I-V-~@AV-136    	751.3       	0           	                	;
 I-V-~@AV-137    	616.8       	0           	                	;
 I-V-~@AV-138    	607         	0           	                	;
 I-V-~@AV-139    	636.5       	0           	                	;
 I-V-~@AV-14     	662.7       	0           	                	;
 I-V-~@AV-140    	590.6       	0           	                	;
 I-V-~@AV-141    	629.9       	0           	                	;
 I-V-~@AV-142    	593.8       	0           	                	;
 I-V-~@AV-143    	656.2       	0           	                	;
 I-V-~@AV-144    	662.7       	0           	                	;
 I-V-~@AV-145    	600.4       	0           	                	;
 I-V-~@AV-146    	659.5       	0           	                	;
 I-V-~@AV-147    	629.9       	0           	                	;
 I-V-~@AV-148    	613.5       	0           	                	;
 I-V-~@AV-149    	603.7       	0           	                	;
 I-V-~@AV-15     	780.8       	0           	                	;
 I-V-~@AV-150    	616.8       	0           	                	;
 I-V-~@AV-151    	623.4       	0           	                	;
 I-V-~@AV-152    	876         	0           	                	;
 I-V-~@AV-153    	830.1       	0           	                	;
 I-V-~@AV-154    	662.7       	0           	                	;
 I-V-~@AV-155    	705.4       	0           	                	;
 I-V-~@AV-156    	702.1       	0           	                	;
 I-V-~@AV-157    	666         	0           	                	;
 I-V-~@AV-158    	616.8       	0           	                	;
 I-V-~@AV-159    	695.5       	0           	                	;
 I-V-~@AV-16     	790.7       	0           	                	;
 I-V-~@AV-160    	662.7       	0           	                	;
 I-V-~@AV-161    	633.2       	0           	                	;
 I-V-~@AV-162    	672.6       	0           	                	;
 I-V-~@AV-163    	629.9       	0           	                	;
 I-V-~@AV-164    	643         	0           	                	;
 I-V-~@AV-165    	662.7       	0           	                	;
 I-V-~@AV-166    	633.2       	0           	                	;
 I-V-~@AV-167    	636.5       	0           	                	;
 I-V-~@AV-17     	646.3       	0           	                	;
 I-V-~@AV-18     	656.2       	0           	                	;
 I-V-~@AV-19     	675.9       	0           	                	;
 I-V-~@AV-2      	646.3       	0           	                	;
 I-V-~@AV-20     	695.5       	0           	                	;
 I-V-~@AV-21     	597.1       	0           	                	;
 I-V-~@AV-22     	672.6       	0           	                	;
 I-V-~@AV-23     	659.5       	0           	                	;
 I-V-~@AV-24     	682.4       	0           	                	;
 I-V-~@AV-25     	672.6       	0           	                	;
 I-V-~@AV-26     	666         	0           	                	;
 I-V-~@AV-27     	666         	0           	                	;
 I-V-~@AV-28     	669.3       	0           	                	;
 I-V-~@AV-29     	685.7       	0           	                	;
 I-V-~@AV-3      	629.9       	0           	                	;
 I-V-~@AV-30     	672.6       	0           	                	;
 I-V-~@AV-31     	643         	0           	                	;
 I-V-~@AV-32     	636.5       	0           	                	;
 I-V-~@AV-33     	784.1       	0           	                	;
 I-V-~@AV-34     	633.2       	0           	                	;
 I-V-~@AV-35     	731.6       	0           	                	;
 I-V-~@AV-36     	623.4       	0           	                	;
 I-V-~@AV-37     	636.5       	0           	                	;
 I-V-~@AV-38     	715.2       	0           	                	;
 I-V-~@AV-39     	639.8       	0           	                	;
 I-V-~@AV-4      	636.5       	0           	                	;
 I-V-~@AV-40     	643         	0           	                	;
 I-V-~@AV-41     	636.5       	0           	                	;
 I-V-~@AV-42     	623.4       	0           	                	;
 I-V-~@AV-43     	623.4       	0           	                	;
 I-V-~@AV-44     	636.5       	0           	                	;
 I-V-~@AV-45     	836.6       	0           	                	;
 I-V-~@AV-46     	711.9       	0           	                	;
 I-V-~@AV-47     	643         	0           	                	;
 I-V-~@AV-48     	643         	0           	                	;
 I-V-~@AV-49     	643         	0           	                	;
 I-V-~@AV-5      	613.5       	0           	                	;
 I-V-~@AV-50     	652.9       	0           	                	;
 I-V-~@AV-51     	695.5       	0           	                	;
 I-V-~@AV-52     	692.3       	0           	                	;
 I-V-~@AV-53     	652.9       	0           	                	;
 I-V-~@AV-54     	682.4       	0           	                	;
 I-V-~@AV-55     	692.3       	0           	                	;
 I-V-~@AV-56     	869.4       	0           	                	;
 I-V-~@AV-57     	675.9       	0           	                	;
 I-V-~@AV-58     	741.5       	0           	                	;
 I-V-~@AV-59     	787.4       	0           	                	;
 I-V-~@AV-6      	629.9       	0           	                	;
 I-V-~@AV-60     	977.7       	0           	                	;
 I-V-~@AV-61     	961.3       	0           	                	;
 I-V-~@AV-62     	692.3       	0           	                	;
 I-V-~@AV-63     	692.3       	0           	                	;
 I-V-~@AV-64     	695.5       	0           	                	;
 I-V-~@AV-65     	702.1       	0           	                	;
 I-V-~@AV-66     	669.3       	0           	                	;
 I-V-~@AV-67     	731.6       	0           	                	;
 I-V-~@AV-68     	685.7       	0           	                	;
 I-V-~@AV-69     	669.3       	0           	                	;
 I-V-~@AV-7      	620.1       	0           	                	;
 I-V-~@AV-70     	708.7       	0           	                	;
 I-V-~@AV-71     	675.9       	0           	                	;
 I-V-~@AV-72     	666         	0           	                	;
 I-V-~@AV-73     	679.1       	0           	                	;
 I-V-~@AV-74     	692.3       	0           	                	;
 I-V-~@AV-75     	679.1       	0           	                	;
 I-V-~@AV-76     	734.9       	0           	                	;
 I-V-~@AV-77     	639.8       	0           	                	;
 I-V-~@AV-78     	685.7       	0           	                	;
 I-V-~@AV-79     	675.9       	0           	                	;
 I-V-~@AV-8      	803.8       	0           	                	;
 I-V-~@AV-80     	685.7       	0           	                	;
 I-V-~@AV-81     	774.3       	0           	                	;
 I-V-~@AV-82     	761.2       	0           	                	;
 I-V-~@AV-83     	774.3       	0           	                	;
 I-V-~@AV-84     	764.4       	0           	                	;
 I-V-~@AV-85     	780.8       	0           	                	;
 I-V-~@AV-86     	679.1       	0           	                	;
 I-V-~@AV-87     	702.1       	0           	                	;
 I-V-~@AV-88     	662.7       	0           	                	;
 I-V-~@AV-89     	672.6       	0           	                	;
 I-V-~@AV-9      	607         	0           	                	;
 I-V-~@AV-90     	672.6       	0           	                	;
 I-V-~@AV-91     	708.7       	0           	                	;
 I-V-~@AV-92     	692.3       	0           	                	;
 I-V-~@AV-93     	780.8       	0           	                	;
 I-V-~@AV-94     	702.1       	0           	                	;
 I-V-~@AV-95     	626.6       	0           	                	;
 I-V-~@AV-96     	734.9       	0           	                	;
 I-V-~@AV-97     	711.9       	0           	                	;
 I-V-~@AV-98     	633.2       	0           	                	;
 I-V-~@AV-99     	675.9       	0           	                	;

[RESERVOIRS]
;ID              	Head        	Pattern         
 292_South       	1260        	                	;
 Big_Elk         	1230        	                	;
 Buck_Creek      	1230        	                	;
 Buffalo_Horn_Branch	940         	                	;
 Calloway        	1164        	                	;
 Clearwell       	1040        	                	;
 Eden            	1020        	                	;
 EdenElementary  	1030        	                	;
 Honey_Branchb   	1243        	                	;
 Little_Rockcastle	1237        	                	;
 Marcus_Well     	1129        	                	;
 Middlefork      	1020        	                	;
 R-1             	50          	                	;
 Spears_Hollow   	860         	                	;
 Turkey_Mountain 	983         	                	;

[TANKS]
;ID              	Elevation   	InitLevel   	MinLevel    	MaxLevel    	Diameter    	MinVol      	VolCurve        	Overflow

[PIPES]
;ID              	Node1           	Node2           	Length      	Diameter    	Roughness   	MinorLoss   	Status
 D_P-~@1A        	O-1A            	O-P-~@1A        	0.1         	6           	150         	0           	Open  	;
 D_P-~@1B        	O-1B            	O-P-~@1B        	0.1         	6           	150         	0           	Open  	;
 D_P-~@2B        	O-2B            	O-P-~@2B        	0.1         	6           	150         	0           	Open  	;
 D_P-~@3B        	O-3B            	O-P-~@3B        	0.1         	6           	150         	0           	Open  	;
 D_P-~@4A        	O-4A            	O-P-~@4A        	0.1         	6           	150         	0           	Open  	;
 D_P-~@4B        	O-4B            	O-P-~@4B        	0.1         	6           	150         	0           	Open  	;
 D_P-~@6B        	O-6B            	O-P-~@6B        	0.1         	6           	150         	0           	Open  	;
 D_P-~@BIG_ELKa  	O-BIG_ELKa      	O-P-~@BIG_ELKa  	0.1         	6           	150         	0           	Open  	;
 D_P-~@FASTLANE  	O-FASTLANE      	O-P-~@FASTLANE  	0.1         	6           	150         	0           	Open  	;
 D_P-~@P292      	O-P292          	O-P-~@P292      	0.1         	6           	150         	0           	Open  	;
 D_P-~@WTP       	O-WTP           	O-P-~@WTP       	0.1         	6           	150         	0           	Open  	;
 D_V-~@AV-1      	O-AV-1          	O-V-~@AV-1      	0.1         	53.55183    	150         	0           	Open  	;
 D_V-~@AV-10     	O-AV-10         	O-V-~@AV-10     	0.1         	53.55183    	150         	0           	Open  	;
 D_V-~@AV-100    	O-AV-100        	O-V-~@AV-100    	0.1         	53.55183    	150         	0           	Open  	;
 D_V-~@AV-101    	O-AV-101        	O-V-~@AV-101    	0.1         	53.55183    	150         	0           	Open  	;
 D_V-~@AV-102    	O-AV-102        	O-V-~@AV-102    	0.1         	53.55183    	150         	0           	Open  	;
 D_V-~@AV-103    	O-AV-103        	O-V-~@AV-103    	0.1         	53.55183    	150         	0           	Open  	;
 D_V-~@AV-104    	O-AV-104        	O-V-~@AV-104    	0.1         	53.55183    	150         	0           	Open  	;
 D_V-~@AV-105    	O-AV-105        	O-V-~@AV-105    	0.1         	53.55183    	150         	0           	Open  	;
 D_V-~@AV-106    	O-AV-106        	O-V-~@AV-106    	0.1         	53.55183    	150         	0           	Open  	;
 D_V-~@AV-107    	O-AV-107        	O-V-~@AV-107    	0.1         	53.55183    	150         	0           	Open  	;
 D_V-~@AV-108    	O-AV-108        	O-V-~@AV-108    	0.1         	53.55183    	150         	0           	Open  	;
 D_V-~@AV-109    	O-AV-109        	O-V-~@AV-109    	0.1         	53.55183    	150         	0           	Open  	;
 D_V-~@AV-11     	O-AV-11         	O-V-~@AV-11     	0.1         	53.55183    	150         	0           	Open  	;
 D_V-~@AV-110    	O-AV-110        	O-V-~@AV-110    	0.1         	53.55183    	150         	0           	Open  	;
 D_V-~@AV-111    	O-AV-111        	O-V-~@AV-111    	0.1         	53.55183    	150         	0           	Open  	;
 D_V-~@AV-112    	O-AV-112        	O-V-~@AV-112    	0.1         	53.55183    	150         	0           	Open  	;
 D_V-~@AV-113    	O-AV-113        	O-V-~@AV-113    	0.1         	53.55183    	150         	0           	Open  	;
 D_V-~@AV-114    	O-AV-114        	O-V-~@AV-114    	0.1         	53.55183    	150         	0           	Open  	;
 D_V-~@AV-115    	O-AV-115        	O-V-~@AV-115    	0.1         	53.55183    	150         	0           	Open  	;
 D_V-~@AV-116    	O-AV-116        	O-V-~@AV-116    	0.1         	53.55183    	150         	0           	Open  	;
 D_V-~@AV-117    	O-AV-117        	O-V-~@AV-117    	0.1         	53.55183    	150         	0           	Open  	;
 D_V-~@AV-118    	O-AV-118        	O-V-~@AV-118    	0.1         	53.55183    	150         	0           	Open  	;
 D_V-~@AV-119    	O-AV-119        	O-V-~@AV-119    	0.1         	53.55183    	150         	0           	Open  	;
 D_V-~@AV-12     	O-AV-12         	O-V-~@AV-12     	0.1         	53.55183    	150         	0           	Open  	;
 D_V-~@AV-120    	O-AV-120        	O-V-~@AV-120    	0.1         	53.55183    	150         	0           	Open  	;
 D_V-~@AV-121    	O-AV-121        	O-V-~@AV-121    	0.1         	53.55183    	150         	0           	Open  	;
 D_V-~@AV-122    	O-AV-122        	O-V-~@AV-122    	0.1         	53.55183    	150         	0           	Open  	;
 D_V-~@AV-123    	O-AV-123        	O-V-~@AV-123    	0.1         	53.55183    	150         	0           	Open  	;
 D_V-~@AV-124    	O-AV-124        	O-V-~@AV-124    	0.1         	53.55183    	150         	0           	Open  	;
 D_V-~@AV-125    	O-AV-125        	O-V-~@AV-125    	0.1         	53.55183    	150         	0           	Open  	;
 D_V-~@AV-126    	O-AV-126        	O-V-~@AV-126    	0.1         	53.55183    	150         	0           	Open  	;
 D_V-~@AV-127    	O-AV-127        	O-V-~@AV-127    	0.1         	53.55183    	150         	0           	Open  	;
 D_V-~@AV-128    	O-AV-128        	O-V-~@AV-128    	0.1         	53.55183    	150         	0           	Open  	;
 D_V-~@AV-129    	O-AV-129        	O-V-~@AV-129    	0.1         	53.55183    	150         	0           	Open  	;
 D_V-~@AV-13     	O-AV-13         	O-V-~@AV-13     	0.1         	53.55183    	150         	0           	Open  	;
 D_V-~@AV-130    	O-AV-130        	O-V-~@AV-130    	0.1         	53.55183    	150         	0           	Open  	;
 D_V-~@AV-131    	O-AV-131        	O-V-~@AV-131    	0.1         	53.55183    	150         	0           	Open  	;
 D_V-~@AV-132    	O-AV-132        	O-V-~@AV-132    	0.1         	53.55183    	150         	0           	Open  	;
 D_V-~@AV-133    	O-AV-133        	O-V-~@AV-133    	0.1         	53.55183    	150         	0           	Open  	;
 D_V-~@AV-134    	O-AV-134        	O-V-~@AV-134    	0.1         	53.55183    	150         	0           	Open  	;
 D_V-~@AV-135    	O-AV-135        	O-V-~@AV-135    	0.1         	53.55183    	150         	0           	Open  	;
 D_V-~@AV-136    	O-AV-136        	O-V-~@AV-136    	0.1         	53.55183    	150         	0           	Open  	;
 D_V-~@AV-137    	O-AV-137        	O-V-~@AV-137    	0.1         	53.55183    	150         	0           	Open  	;
 D_V-~@AV-138    	O-AV-138        	O-V-~@AV-138    	0.1         	53.55183    	150         	0           	Open  	;
 D_V-~@AV-139    	O-AV-139        	O-V-~@AV-139    	0.1         	53.55183    	150         	0           	Open  	;
 D_V-~@AV-14     	O-AV-14         	O-V-~@AV-14     	0.1         	53.55183    	150         	0           	Open  	;
 D_V-~@AV-140    	O-AV-140        	O-V-~@AV-140    	0.1         	53.55183    	150         	0           	Open  	;
 D_V-~@AV-141    	O-AV-141        	O-V-~@AV-141    	0.1         	53.55183    	150         	0           	Open  	;
 D_V-~@AV-142    	O-AV-142        	O-V-~@AV-142    	0.1         	53.55183    	150         	0           	Open  	;
 D_V-~@AV-143    	O-AV-143        	O-V-~@AV-143    	0.1         	53.55183    	150         	0           	Open  	;
 D_V-~@AV-144    	O-AV-144        	O-V-~@AV-144    	0.1         	53.55183    	150         	0           	Open  	;
 D_V-~@AV-145    	O-AV-145        	O-V-~@AV-145    	0.1         	53.55183    	150         	0           	Open  	;
 D_V-~@AV-146    	O-AV-146        	O-V-~@AV-146    	0.1         	53.55183    	150         	0           	Open  	;
 D_V-~@AV-147    	O-AV-147        	O-V-~@AV-147    	0.1         	53.55183    	150         	0           	Open  	;
 D_V-~@AV-148    	O-AV-148        	O-V-~@AV-148    	0.1         	53.55183    	150         	0           	Open  	;
 D_V-~@AV-149    	O-AV-149        	O-V-~@AV-149    	0.1         	53.55183    	150         	0           	Open  	;
 D_V-~@AV-15     	O-AV-15         	O-V-~@AV-15     	0.1         	53.55183    	150         	0           	Open  	;
 D_V-~@AV-150    	O-AV-150        	O-V-~@AV-150    	0.1         	53.55183    	150         	0           	Open  	;
 D_V-~@AV-151    	O-AV-151        	O-V-~@AV-151    	0.1         	53.55183    	150         	0           	Open  	;
 D_V-~@AV-152    	O-AV-152        	O-V-~@AV-152    	0.1         	53.55183    	150         	0           	Open  	;
 D_V-~@AV-153    	O-AV-153        	O-V-~@AV-153    	0.1         	53.55183    	150         	0           	Open  	;
 D_V-~@AV-154    	O-AV-154        	O-V-~@AV-154    	0.1         	53.55183    	150         	0           	Open  	;
 D_V-~@AV-155    	O-AV-155        	O-V-~@AV-155    	0.1         	53.55183    	150         	0           	Open  	;
 D_V-~@AV-156    	O-AV-156        	O-V-~@AV-156    	0.1         	53.55183    	150         	0           	Open  	;
 D_V-~@AV-157    	O-AV-157        	O-V-~@AV-157    	0.1         	53.55183    	150         	0           	Open  	;
 D_V-~@AV-158    	O-AV-158        	O-V-~@AV-158    	0.1         	53.55183    	150         	0           	Open  	;
 D_V-~@AV-159    	O-AV-159        	O-V-~@AV-159    	0.1         	53.55183    	150         	0           	Open  	;
 D_V-~@AV-16     	O-AV-16         	O-V-~@AV-16     	0.1         	53.55183    	150         	0           	Open  	;
 D_V-~@AV-160    	O-AV-160        	O-V-~@AV-160    	0.1         	53.55183    	150         	0           	Open  	;
 D_V-~@AV-161    	O-AV-161        	O-V-~@AV-161    	0.1         	53.55183    	150         	0           	Open  	;
 D_V-~@AV-162    	O-AV-162        	O-V-~@AV-162    	0.1         	53.55183    	150         	0           	Open  	;
 D_V-~@AV-163    	O-AV-163        	O-V-~@AV-163    	0.1         	53.55183    	150         	0           	Open  	;
 D_V-~@AV-164    	O-AV-164        	O-V-~@AV-164    	0.1         	53.55183    	150         	0           	Open  	;
 D_V-~@AV-165    	O-AV-165        	O-V-~@AV-165    	0.1         	53.55183    	150         	0           	Open  	;
 D_V-~@AV-166    	O-AV-166        	O-V-~@AV-166    	0.1         	53.55183    	150         	0           	Open  	;
 D_V-~@AV-167    	O-AV-167        	O-V-~@AV-167    	0.1         	53.55183    	150         	0           	Open  	;
 D_V-~@AV-17     	O-AV-17         	O-V-~@AV-17     	0.1         	53.55183    	150         	0           	Open  	;
 D_V-~@AV-18     	O-AV-18         	O-V-~@AV-18     	0.1         	53.55183    	150         	0           	Open  	;
 D_V-~@AV-19     	O-AV-19         	O-V-~@AV-19     	0.1         	53.55183    	150         	0           	Open  	;
 D_V-~@AV-2      	O-AV-2          	O-V-~@AV-2      	0.1         	53.55183    	150         	0           	Open  	;
 D_V-~@AV-20     	O-AV-20         	O-V-~@AV-20     	0.1         	53.55183    	150         	0           	Open  	;
 D_V-~@AV-21     	O-AV-21         	O-V-~@AV-21     	0.1         	53.55183    	150         	0           	Open  	;
 D_V-~@AV-22     	O-AV-22         	O-V-~@AV-22     	0.1         	53.55183    	150         	0           	Open  	;
 D_V-~@AV-23     	O-AV-23         	O-V-~@AV-23     	0.1         	53.55183    	150         	0           	Open  	;
 D_V-~@AV-24     	O-AV-24         	O-V-~@AV-24     	0.1         	53.55183    	150         	0           	Open  	;
 D_V-~@AV-25     	O-AV-25         	O-V-~@AV-25     	0.1         	53.55183    	150         	0           	Open  	;
 D_V-~@AV-26     	O-AV-26         	O-V-~@AV-26     	0.1         	53.55183    	150         	0           	Open  	;
 D_V-~@AV-27     	O-AV-27         	O-V-~@AV-27     	0.1         	53.55183    	150         	0           	Open  	;
 D_V-~@AV-28     	O-AV-28         	O-V-~@AV-28     	0.1         	53.55183    	150         	0           	Open  	;
 D_V-~@AV-29     	O-AV-29         	O-V-~@AV-29     	0.1         	53.55183    	150         	0           	Open  	;
 D_V-~@AV-3      	O-AV-3          	O-V-~@AV-3      	0.1         	53.55183    	150         	0           	Open  	;
 D_V-~@AV-30     	O-AV-30         	O-V-~@AV-30     	0.1         	53.55183    	150         	0           	Open  	;
 D_V-~@AV-31     	O-AV-31         	O-V-~@AV-31     	0.1         	53.55183    	150         	0           	Open  	;
 D_V-~@AV-32     	O-AV-32         	O-V-~@AV-32     	0.1         	53.55183    	150         	0           	Open  	;
 D_V-~@AV-33     	O-AV-33         	O-V-~@AV-33     	0.1         	53.55183    	150         	0           	Open  	;
 D_V-~@AV-34     	O-AV-34         	O-V-~@AV-34     	0.1         	53.55183    	150         	0           	Open  	;
 D_V-~@AV-35     	O-AV-35         	O-V-~@AV-35     	0.1         	53.55183    	150         	0           	Open  	;
 D_V-~@AV-36     	O-AV-36         	O-V-~@AV-36     	0.1         	53.55183    	150         	0           	Open  	;
 D_V-~@AV-37     	O-AV-37         	O-V-~@AV-37     	0.1         	53.55183    	150         	0           	Open  	;
 D_V-~@AV-38     	O-AV-38         	O-V-~@AV-38     	0.1         	53.55183    	150         	0           	Open  	;
 D_V-~@AV-39     	O-AV-39         	O-V-~@AV-39     	0.1         	53.55183    	150         	0           	Open  	;
 D_V-~@AV-4      	O-AV-4          	O-V-~@AV-4      	0.1         	53.55183    	150         	0           	Open  	;
 D_V-~@AV-40     	O-AV-40         	O-V-~@AV-40     	0.1         	53.55183    	150         	0           	Open  	;
 D_V-~@AV-41     	O-AV-41         	O-V-~@AV-41     	0.1         	53.55183    	150         	0           	Open  	;
 D_V-~@AV-42     	O-AV-42         	O-V-~@AV-42     	0.1         	53.55183    	150         	0           	Open  	;
 D_V-~@AV-43     	O-AV-43         	O-V-~@AV-43     	0.1         	53.55183    	150         	0           	Open  	;
 D_V-~@AV-44     	O-AV-44         	O-V-~@AV-44     	0.1         	53.55183    	150         	0           	Open  	;
 D_V-~@AV-45     	O-AV-45         	O-V-~@AV-45     	0.1         	53.55183    	150         	0           	Open  	;
 D_V-~@AV-46     	O-AV-46         	O-V-~@AV-46     	0.1         	53.55183    	150         	0           	Open  	;
 D_V-~@AV-47     	O-AV-47         	O-V-~@AV-47     	0.1         	53.55183    	150         	0           	Open  	;
 D_V-~@AV-48     	O-AV-48         	O-V-~@AV-48     	0.1         	53.55183    	150         	0           	Open  	;
 D_V-~@AV-49     	O-AV-49         	O-V-~@AV-49     	0.1         	53.55183    	150         	0           	Open  	;
 D_V-~@AV-5      	O-AV-5          	O-V-~@AV-5      	0.1         	53.55183    	150         	0           	Open  	;
 D_V-~@AV-50     	O-AV-50         	O-V-~@AV-50     	0.1         	53.55183    	150         	0           	Open  	;
 D_V-~@AV-51     	O-AV-51         	O-V-~@AV-51     	0.1         	53.55183    	150         	0           	Open  	;
 D_V-~@AV-52     	O-AV-52         	O-V-~@AV-52     	0.1         	53.55183    	150         	0           	Open  	;
 D_V-~@AV-53     	O-AV-53         	O-V-~@AV-53     	0.1         	53.55183    	150         	0           	Open  	;
 D_V-~@AV-54     	O-AV-54         	O-V-~@AV-54     	0.1         	53.55183    	150         	0           	Open  	;
 D_V-~@AV-55     	O-AV-55         	O-V-~@AV-55     	0.1         	53.55183    	150         	0           	Open  	;
 D_V-~@AV-56     	O-AV-56         	O-V-~@AV-56     	0.1         	53.55183    	150         	0           	Open  	;
 D_V-~@AV-57     	O-AV-57         	O-V-~@AV-57     	0.1         	53.55183    	150         	0           	Open  	;
 D_V-~@AV-58     	O-AV-58         	O-V-~@AV-58     	0.1         	53.55183    	150         	0           	Open  	;
 D_V-~@AV-59     	O-AV-59         	O-V-~@AV-59     	0.1         	53.55183    	150         	0           	Open  	;
 D_V-~@AV-6      	O-AV-6          	O-V-~@AV-6      	0.1         	53.55183    	150         	0           	Open  	;
 D_V-~@AV-60     	O-AV-60         	O-V-~@AV-60     	0.1         	53.55183    	150         	0           	Open  	;
 D_V-~@AV-61     	O-AV-61         	O-V-~@AV-61     	0.1         	53.55183    	150         	0           	Open  	;
 D_V-~@AV-62     	O-AV-62         	O-V-~@AV-62     	0.1         	53.55183    	150         	0           	Open  	;
 D_V-~@AV-63     	O-AV-63         	O-V-~@AV-63     	0.1         	53.55183    	150         	0           	Open  	;
 D_V-~@AV-64     	O-AV-64         	O-V-~@AV-64     	0.1         	53.55183    	150         	0           	Open  	;
 D_V-~@AV-65     	O-AV-65         	O-V-~@AV-65     	0.1         	53.55183    	150         	0           	Open  	;
 D_V-~@AV-66     	O-AV-66         	O-V-~@AV-66     	0.1         	53.55183    	150         	0           	Open  	;
 D_V-~@AV-67     	O-AV-67         	O-V-~@AV-67     	0.1         	53.55183    	150         	0           	Open  	;
 D_V-~@AV-68     	O-AV-68         	O-V-~@AV-68     	0.1         	53.55183    	150         	0           	Open  	;
 D_V-~@AV-69     	O-AV-69         	O-V-~@AV-69     	0.1         	53.55183    	150         	0           	Open  	;
 D_V-~@AV-7      	O-AV-7          	O-V-~@AV-7      	0.1         	53.55183    	150         	0           	Open  	;
 D_V-~@AV-70     	O-AV-70         	O-V-~@AV-70     	0.1         	53.55183    	150         	0           	Open  	;
 D_V-~@AV-71     	O-AV-71         	O-V-~@AV-71     	0.1         	53.55183    	150         	0           	Open  	;
 D_V-~@AV-72     	O-AV-72         	O-V-~@AV-72     	0.1         	53.55183    	150         	0           	Open  	;
 D_V-~@AV-73     	O-AV-73         	O-V-~@AV-73     	0.1         	53.55183    	150         	0           	Open  	;
 D_V-~@AV-74     	O-AV-74         	O-V-~@AV-74     	0.1         	53.55183    	150         	0           	Open  	;
 D_V-~@AV-75     	O-AV-75         	O-V-~@AV-75     	0.1         	53.55183    	150         	0           	Open  	;
 D_V-~@AV-76     	O-AV-76         	O-V-~@AV-76     	0.1         	53.55183    	150         	0           	Open  	;
 D_V-~@AV-77     	O-AV-77         	O-V-~@AV-77     	0.1         	53.55183    	150         	0           	Open  	;
 D_V-~@AV-78     	O-AV-78         	O-V-~@AV-78     	0.1         	53.55183    	150         	0           	Open  	;
 D_V-~@AV-79     	O-AV-79         	O-V-~@AV-79     	0.1         	53.55183    	150         	0           	Open  	;
 D_V-~@AV-8      	O-AV-8          	O-V-~@AV-8      	0.1         	53.55183    	150         	0           	Open  	;
 D_V-~@AV-80     	O-AV-80         	O-V-~@AV-80     	0.1         	53.55183    	150         	0           	Open  	;
 D_V-~@AV-81     	O-AV-81         	O-V-~@AV-81     	0.1         	53.55183    	150         	0           	Open  	;
 D_V-~@AV-82     	O-AV-82         	O-V-~@AV-82     	0.1         	53.55183    	150         	0           	Open  	;
 D_V-~@AV-83     	O-AV-83         	O-V-~@AV-83     	0.1         	53.55183    	150         	0           	Open  	;
 D_V-~@AV-84     	O-AV-84         	O-V-~@AV-84     	0.1         	53.55183    	150         	0           	Open  	;
 D_V-~@AV-85     	O-AV-85         	O-V-~@AV-85     	0.1         	53.55183    	150         	0           	Open  	;
 D_V-~@AV-86     	O-AV-86         	O-V-~@AV-86     	0.1         	53.55183    	150         	0           	Open  	;
 D_V-~@AV-87     	O-AV-87         	O-V-~@AV-87     	0.1         	53.55183    	150         	0           	Open  	;
 D_V-~@AV-88     	O-AV-88         	O-V-~@AV-88     	0.1         	53.55183    	150         	0           	Open  	;
 D_V-~@AV-89     	O-AV-89         	O-V-~@AV-89     	0.1         	53.55183    	150         	0           	Open  	;
 D_V-~@AV-9      	O-AV-9          	O-V-~@AV-9      	0.1         	53.55183    	150         	0           	Open  	;
 D_V-~@AV-90     	O-AV-90         	O-V-~@AV-90     	0.1         	53.55183    	150         	0           	Open  	;
 D_V-~@AV-91     	O-AV-91         	O-V-~@AV-91     	0.1         	53.55183    	150         	0           	Open  	;
 D_V-~@AV-92     	O-AV-92         	O-V-~@AV-92     	0.1         	53.55183    	150         	0           	Open  	;
 D_V-~@AV-93     	O-AV-93         	O-V-~@AV-93     	0.1         	53.55183    	150         	0           	Open  	;
 D_V-~@AV-94     	O-AV-94         	O-V-~@AV-94     	0.1         	53.55183    	150         	0           	Open  	;
 D_V-~@AV-95     	O-AV-95         	O-V-~@AV-95     	0.1         	53.55183    	150         	0           	Open  	;
 D_V-~@AV-96     	O-AV-96         	O-V-~@AV-96     	0.1         	53.55183    	150         	0           	Open  	;
 D_V-~@AV-97     	O-AV-97         	O-V-~@AV-97     	0.1         	53.55183    	150         	0           	Open  	;
 D_V-~@AV-98     	O-AV-98         	O-V-~@AV-98     	0.1         	53.55183    	150         	0           	Open  	;
 D_V-~@AV-99     	O-AV-99         	O-V-~@AV-99     	0.1         	53.55183    	150         	0           	Open  	;
 P-~@1A          	I-1A            	I-P-~@1A        	0.1         	6           	150         	0           	Open  	;
 P-~@1B          	I-1B            	I-P-~@1B        	0.1         	6           	150         	0           	Open  	;
 P-~@2B          	I-2B            	I-P-~@2B        	0.1         	6           	150         	0           	Open  	;
 P-~@3B          	I-3B            	I-P-~@3B        	0.1         	6           	150         	0           	Open  	;
 P-~@4A          	I-4A            	I-P-~@4A        	0.1         	6           	150         	0           	Open  	;
 P-~@4B          	I-4B            	I-P-~@4B        	0.1         	6           	150         	0           	Open  	;
 P-~@6B          	I-6B            	I-P-~@6B        	0.1         	6           	150         	0           	Open  	;
 P-~@BIG_ELKa    	I-BIG_ELKa      	I-P-~@BIG_ELKa  	0.1         	6           	150         	0           	Open  	;
 P-~@FASTLANE    	I-FASTLANE      	I-P-~@FASTLANE  	0.1         	6           	150         	0           	Open  	;
 P-~@P292        	I-P292          	I-P-~@P292      	0.1         	6           	150         	0           	Open  	;
 P-~@WTP         	I-WTP           	I-P-~@WTP       	0.1         	6           	150         	0           	Open  	;
 P-1             	J-1             	J-2             	312.579     	8           	152         	0           	Open  	;
 P-10            	J-16            	J-17            	1237.328    	6           	152         	0           	Open  	;
 P-100           	J-138           	J-432           	2664.34     	6           	152         	0           	Open  	;
 P-101           	J-157           	J-158           	586.479     	4           	152         	0           	Open  	;
 P-102           	J-159           	I-AV-143        	3915.28     	6           	152         	0           	Open  	;
 P-103           	J-63            	J-148           	13.729      	3           	127         	0           	Open  	;
 P-104           	J-135           	J-57            	50.43       	3           	152         	0           	Open  	;
 P-105           	J-66            	I-AV-82         	2299.78     	4           	152         	0           	Open  	;
 P-106           	J-161           	I-AV-52         	4609.798    	6           	152         	0           	Open  	;
 P-107           	J-163           	J-164           	233.169     	4           	152         	0           	Open  	;
 P-108           	J-165           	I-AV-26         	1188.348    	4           	152         	0           	Open  	;
 P-109           	J-57            	J-167           	4342.258    	3           	152         	0           	Open  	;
 P-11            	J-18            	J-19            	259.019     	4           	152         	0           	Open  	;
 P-110           	J-102           	I-AV-29         	348.709     	4           	152         	0           	Open  	;
 P-111           	J-52            	O-FASTLANE      	229.02      	8           	152         	0           	Open  	;
 P-112           	J-170           	J-171           	895.53      	2           	127         	0           	Open  	;
 P-113           	J-168           	J-172           	2670.85     	8           	152         	0           	Open  	;
 P-114           	J-173           	J-174           	2925.35     	3           	127         	0           	Open  	;
 P-115           	J-131           	J-175           	1549.53     	2           	127         	0           	Open  	;
 P-116           	J-23            	J-176           	806         	8           	147         	0           	Open  	;
 P-117           	J-177           	J-437           	148.369     	6           	145         	0           	Open  	;
 P-118           	J-179           	J-180           	488.2       	2           	127         	0           	Open  	;
 P-119           	O-AV-4          	J-84            	3752.928    	6           	152         	0           	Open  	;
 P-12            	J-7             	J-20            	929.38      	2           	127         	0           	Open  	;
 P-120           	J-170           	J-181           	1515.29     	2           	127         	0           	Open  	;
 P-121           	J-183           	J-184           	3861.55     	3           	152         	0           	Open  	;
 P-122           	J-182           	I-AV-142        	1192.78     	2           	127         	0           	Open  	;
 P-123           	J-186           	J-187           	1278.53     	4           	152         	0           	Open  	;
 P-124           	J-55            	I-AV-112        	917.51      	8           	152         	0           	Open  	;
 P-125           	J-189           	J-190           	317         	2           	127         	0           	Open  	;
 P-126           	J-191           	J-192           	4467.29     	4           	152         	0           	Open  	;
 P-127           	J-193           	I-AV-4          	1126.218    	6           	152         	0           	Open  	;
 P-128           	J-194           	J-195           	621.809     	2           	127         	0           	Open  	;
 P-129           	J-196           	I-AV-81         	4210.858    	4           	152         	0           	Open  	;
 P-13            	J-21            	J-22            	276.868     	6           	152         	0           	Open  	;
 P-130           	J-65            	I-AV-8          	1451.02     	6           	152         	0           	Open  	;
 P-131           	J-166           	J-198           	419.178     	2           	127         	0           	Open  	;
 P-132           	J-199           	I-AV-58         	1111.489    	10          	152         	0           	Open  	;
 P-133           	J-201           	J-202           	756.309     	6           	127         	0           	Open  	;
 P-134           	J-203           	J-204           	1388.729    	10          	152         	0           	Open  	;
 P-135           	J-205           	J-429           	54.708      	4           	127         	0           	Open  	;
 P-136           	J-207           	J-165           	2668.03     	6           	152         	0           	Open  	;
 P-137           	J-136           	I-AV-123        	1298.52     	8           	152         	0           	Open  	;
 P-138           	J-208           	I-AV-30         	1213.968    	3           	152         	0           	Open  	;
 P-139           	J-210           	J-211           	556.57      	2           	127         	0           	Open  	;
 P-14            	J-19            	J-23            	2414.31     	4           	152         	0           	Open  	;
 P-140           	J-212           	J-213           	7017.62     	3           	152         	0           	Open  	;
 P-141           	J-52            	J-426           	2291.82     	4           	152         	0           	Open  	;
 P-142           	J-215           	J-216           	9023.258    	4           	152         	0           	Open  	;
 P-143           	J-217           	I-AV-97         	12979.23    	6           	152         	0           	Open  	;
 P-144           	J-219           	J-30            	4009.448    	4           	152         	0           	Open  	;
 P-145           	J-220           	J-221           	2587.08     	3           	152         	0           	Open  	;
 P-146           	J-222           	I-AV-80         	2687.04     	4           	152         	0           	Open  	;
 P-147           	J-223           	I-AV-78         	2298.428    	4           	152         	0           	Open  	;
 P-148           	J-224           	I-AV-55         	1352.56     	8           	147         	0           	Open  	;
 P-149           	J-216           	I-AV-133        	1244.578    	4           	152         	0           	Open  	;
 P-15            	J-24            	J-333           	184.08      	6           	152         	0           	Open  	;
 P-150           	J-200           	J-224           	723.598     	10          	152         	0           	Open  	;
 P-151           	J-225           	J-226           	715.739     	3           	127         	0           	Open  	;
 P-152           	J-145           	J-227           	3.49        	6           	149         	0           	Open  	;
 P-153           	J-17            	J-228           	10.3        	6           	150         	0           	Open  	;
 P-154           	J-229           	J-230           	1381.828    	2           	127         	0           	Open  	;
 P-155           	J-231           	J-124           	1137.838    	4           	152         	0           	Open  	;
 P-156           	J-232           	J-5             	729.718     	3           	127         	0           	Open  	;
 P-157           	J-233           	J-234           	701         	2           	127         	0           	Open  	;
 P-158           	J-235           	J-68            	1193.828    	4           	152         	0           	Open  	;
 P-159           	J-81            	I-AV-33         	1718.39     	4           	152         	0           	Open  	;
 P-16            	J-6             	J-425           	1449.848    	2           	152         	0           	Open  	;
 P-160           	J-73            	J-237           	3832.09     	4           	152         	0           	Open  	;
 P-161           	J-42            	J-143           	5631.088    	8           	152         	0           	Open  	;
 P-162           	J-238           	J-239           	1996.239    	4           	127         	0           	Open  	;
 P-163           	J-91            	J-152           	2217.489    	6           	152         	0           	Open  	;
 P-164           	J-240           	J-241           	368.829     	4           	127         	0           	Open  	;
 P-165           	J-242           	J-243           	788.799     	4           	127         	0           	Open  	;
 P-166           	J-117           	J-244           	475.44      	4           	127         	0           	Open  	;
 P-167           	J-245           	I-AV-150        	1025.208    	6           	152         	0           	Open  	;
 P-168           	J-246           	J-247           	3347.698    	6           	152         	0           	Open  	;
 P-169           	J-248           	J-249           	1115.04     	2           	127         	0           	Open  	;
 P-17            	I-3B            	J-28            	101.518     	6           	152         	0           	Open  	;
 P-170           	J-250           	J-251           	303.32      	2           	127         	0           	Open  	;
 P-171           	J-252           	J-253           	2567.84     	3           	127         	0           	Open  	;
 P-172           	J-254           	J-255           	735.59      	2           	127         	0           	Open  	;
 P-173           	J-256           	J-254           	678.25      	2           	127         	0           	Open  	;
 P-174           	J-257           	I-AV-76         	1784.31     	6           	127         	0           	Open  	;
 P-175           	J-25            	J-259           	911.968     	6           	127         	0           	Open  	;
 P-176           	J-257           	J-260           	547.88      	6           	127         	0           	Open  	;
 P-177           	J-106           	J-231           	26.409      	4           	152         	0           	Open  	;
 P-178           	J-228           	J-48            	2088.04     	6           	152         	0           	Open  	;
 P-179           	J-128           	J-261           	1649.078    	8           	147         	0           	Open  	;
 P-18            	J-130           	O-1A            	195.63      	8           	147         	0           	Open  	;
 P-180           	O-AV-5          	J-201           	1520.568    	6           	127         	0           	Open  	;
 P-181           	J-262           	J-263           	814.77      	3           	127         	0           	Open  	;
 P-182           	J-264           	J-265           	778.039     	4           	127         	0           	Open  	;
 P-183           	J-188           	J-266           	2903.638    	2           	127         	0           	Open  	;
 P-184           	J-132           	J-229           	309.359     	2           	127         	0           	Open  	;
 P-185           	J-124           	I-AV-73         	1091.708    	4           	152         	0           	Open  	;
 P-186           	J-268           	J-113           	464.489     	3           	127         	0           	Open  	;
 P-187           	J-84            	I-AV-10         	612.559     	6           	152         	0           	Open  	;
 P-188           	J-106           	J-269           	453.989     	3           	127         	0           	Open  	;
 P-189           	J-193           	I-AV-5          	1207.01     	6           	127         	0           	Open  	;
 P-19            	J-31            	J-424           	46.979      	3           	127         	0           	Open  	;
 P-190           	J-204           	J-270           	1683.17     	3           	127         	0           	Open  	;
 P-191           	J-127           	J-105           	1126.43     	4           	152         	0           	Open  	;
 P-192           	J-271           	J-272           	617.01      	2           	127         	0           	Open  	;
 P-193           	J-24            	J-273           	3334.489    	6           	152         	0           	Open  	;
 P-194           	J-231           	J-274           	1663.938    	3           	127         	0           	Open  	;
 P-195           	J-164           	J-275           	396.17      	6           	127         	0           	Open  	;
 P-196           	J-156           	J-276           	1894.75     	4           	127         	0           	Open  	;
 P-197           	J-277           	J-278           	1341.968    	2           	127         	0           	Open  	;
 P-198           	J-248           	J-279           	20.409      	6           	152         	0           	Open  	;
 P-199           	J-254           	J-280           	437.67      	2           	127         	0           	Open  	;
 P-2             	J-3             	J-4             	3708.658    	10          	152         	0           	Open  	;
 P-20            	J-31            	J-33            	857.83      	2           	127         	0           	Open  	;
 P-200           	J-281           	J-144           	245.6       	6           	152         	0           	Open  	;
 P-201           	J-218           	J-282           	183.509     	6           	152         	0           	Open  	;
 P-202           	J-189           	I-AV-34         	1277.098    	8           	147         	0           	Open  	;
 P-203           	J-283           	J-135           	41.29       	3           	152         	0           	Open  	;
 P-204           	J-284           	J-285           	692.729     	2           	127         	0           	Open  	;
 P-205           	J-286           	I-AV-46         	968.27      	4           	127         	0           	Open  	;
 P-206           	J-261           	J-427           	503.579     	8           	147         	0           	Open  	;
 P-207           	J-227           	J-431           	541.239     	6           	145         	0           	Open  	;
 P-208           	J-159           	J-182           	14.35       	2           	127         	0           	Open  	;
 P-209           	J-181           	J-288           	10.25       	2           	127         	0           	Open  	;
 P-21            	J-8             	I-AV-98         	723.7       	6           	152         	0           	Open  	;
 P-210           	O-AV-6          	J-64            	1223.698    	6           	152         	0           	Open  	;
 P-211           	J-289           	I-AV-11         	3200.388    	6           	152         	0           	Open  	;
 P-212           	J-290           	J-291           	896.739     	2           	127         	0           	Open  	;
 P-213           	J-221           	I-AV-137        	1276.088    	6           	152         	0           	Open  	;
 P-214           	J-293           	I-AV-36         	1560.64     	8           	147         	0           	Open  	;
 P-215           	J-71            	J-294           	89.088      	6           	152         	0           	Open  	;
 P-216           	J-293           	J-295           	275.398     	2           	127         	0           	Open  	;
 P-217           	J-70            	I-AV-132        	1277.43     	4           	152         	0           	Open  	;
 P-218           	J-136           	J-104           	2487.54     	8           	152         	0           	Open  	;
 P-219           	J-236           	J-219           	4186.938    	4           	152         	0           	Open  	;
 P-22            	J-28            	I-AV-69         	2118.658    	6           	152         	0           	Open  	;
 P-220           	J-296           	J-236           	4620.668    	4           	152         	0           	Open  	;
 P-221           	J-91            	J-240           	191.759     	4           	127         	0           	Open  	;
 P-222           	J-100           	J-286           	654.179     	4           	127         	0           	Open  	;
 P-223           	J-178           	I-AV-41         	1309.52     	8           	147         	0           	Open  	;
 P-224           	J-297           	I-AV-158        	1344.79     	6           	152         	0           	Open  	;
 P-225           	J-298           	I-AV-162        	1136.38     	4           	152         	0           	Open  	;
 P-226           	J-164           	J-27            	336.769     	4           	152         	0           	Open  	;
 P-227           	J-300           	I-AV-89         	3179.08     	6           	152         	0           	Open  	;
 P-228           	J-94            	I-AV-100        	1313.18     	6           	152         	0           	Open  	;
 P-229           	J-169           	J-301           	234.389     	2           	127         	0           	Open  	;
 P-23            	J-35            	J-36            	554.28      	6           	152         	0           	Open  	;
 P-230           	J-52            	I-AV-92         	1298.708    	8           	127         	0           	Open  	;
 P-231           	J-155           	I-P292          	292.769     	4           	152         	0           	Open  	;
 P-232           	J-303           	J-330           	1964.04     	6           	152         	0           	Open  	;
 P-233           	J-141           	J-304           	11.06       	12          	150         	0           	Open  	;
 P-234           	J-264           	I-AV-6          	1374.328    	6           	152         	0           	Open  	;
 P-235           	J-199           	J-305           	1635.239    	3           	127         	0           	Open  	;
 P-236           	J-95            	I-AV-101        	1468.619    	8           	152         	0           	Open  	;
 P-237           	J-48            	J-271           	130.389     	2           	127         	0           	Open  	;
 P-238           	J-307           	J-308           	1553.18     	6           	152         	0           	Open  	;
 P-239           	J-309           	J-310           	876.799     	6           	152         	0           	Open  	;
 P-24            	J-37            	J-10            	188.509     	6           	152         	0           	Open  	;
 P-240           	J-311           	J-312           	457.928     	4           	127         	0           	Open  	;
 P-241           	J-309           	I-AV-3          	1287.708    	6           	152         	0           	Open  	;
 P-242           	J-313           	J-89            	288.6       	2           	127         	0           	Open  	;
 P-243           	J-240           	J-314           	268.148     	4           	127         	0           	Open  	;
 P-244           	J-315           	J-238           	1902.448    	4           	152         	0           	Open  	;
 P-245           	J-42            	J-316           	28.86       	8           	152         	0           	Open  	;
 P-246           	J-165           	I-AV-27         	1213.818    	6           	152         	0           	Open  	;
 P-247           	J-225           	J-318           	3521.31     	6           	152         	0           	Open  	;
 P-248           	J-212           	I-AV-163        	1222.91     	6           	152         	0           	Open  	;
 P-249           	J-319           	I-AV-157        	5766.048    	4           	152         	0           	Open  	;
 P-25            	J-39            	J-40            	4233.54     	3           	152         	0           	Open  	;
 P-250           	J-92            	J-320           	139.83      	2           	127         	0           	Open  	;
 P-251           	J-104           	I-AV-125        	2691.35     	8           	152         	0           	Open  	;
 P-252           	J-222           	J-242           	794.929     	4           	127         	0           	Open  	;
 P-253           	J-309           	J-193           	898.39      	6           	152         	0           	Open  	;
 P-254           	J-97            	I-AV-39         	1183.05     	2           	127         	0           	Open  	;
 P-255           	J-287           	J-99            	1492.77     	4           	127         	0           	Open  	;
 P-256           	J-314           	J-117           	232.91      	4           	127         	0           	Open  	;
 P-257           	J-149           	I-AV-156        	1456.28     	12          	152         	0           	Open  	;
 P-258           	J-47            	J-43            	522.789     	6           	152         	0           	Open  	;
 P-259           	J-160           	J-126           	961.729     	4           	152         	0           	Open  	;
 P-26            	J-11            	I-AV-77         	1197.938    	6           	152         	0           	Open  	;
 P-260           	J-310           	J-193           	1096.318    	6           	127         	0           	Open  	;
 P-261           	J-317           	J-323           	1116.489    	2           	127         	0           	Open  	;
 P-262           	J-111           	J-324           	140.789     	2           	127         	0           	Open  	;
 P-263           	J-325           	J-326           	2932.979    	2           	127         	0           	Open  	;
 P-264           	J-307           	I-AV-74         	1142.52     	3           	127         	0           	Open  	;
 P-265           	J-102           	J-327           	586.76      	2           	127         	0           	Open  	;
 P-266           	J-127           	J-284           	580.619     	2           	127         	0           	Open  	;
 P-267           	J-328           	I-AV-57         	834.679     	3           	127         	0           	Open  	;
 P-268           	O-AV-7          	J-65            	1859.18     	6           	152         	0           	Open  	;
 P-269           	J-156           	J-289           	5.738       	6           	149         	0           	Open  	;
 P-27            	J-41            	J-42            	10849.848   	8           	152         	0           	Open  	;
 P-270           	J-282           	J-205           	1542.54     	6           	152         	0           	Open  	;
 P-271           	J-331           	I-AV-107        	1317.609    	3           	152         	0           	Open  	;
 P-272           	O-AV-8          	I-AV-99         	3867.35     	6           	152         	0           	Open  	;
 P-273           	J-304           	J-228           	384.97      	12          	152         	0           	Open  	;
 P-274           	J-329           	J-334           	419.25      	3           	127         	0           	Open  	;
 P-275           	J-148           	J-335           	2819.6      	3           	127         	0           	Open  	;
 P-276           	J-183           	J-336           	657.609     	2           	127         	0           	Open  	;
 P-277           	J-298           	I-AV-160        	7414.97     	4           	152         	0           	Open  	;
 P-278           	J-90            	J-313           	147.589     	8           	147         	0           	Open  	;
 P-279           	J-166           	J-198           	419.178     	4           	152         	0           	Open  	;
 P-28            	J-19            	J-31            	543.7       	3           	127         	0           	Open  	;
 P-280           	J-301           	J-337           	1419.78     	8           	127         	0           	Open  	;
 P-281           	J-77            	I-AV-56         	1512.489    	6           	145         	0           	Open  	;
 P-282           	J-169           	I-AV-86         	1267.05     	8           	152         	0           	Open  	;
 P-283           	J-200           	J-338           	1700.369    	3           	127         	0           	Open  	;
 P-284           	J-173           	J-339           	1057.27     	3           	127         	0           	Open  	;
 P-285           	J-340           	J-341           	345.898     	4           	127         	0           	Open  	;
 P-286           	J-74            	J-342           	1318.13     	3           	127         	0           	Open  	;
 P-287           	J-320           	J-92            	139.83      	10          	147         	0           	Open  	;
 P-288           	J-201           	J-343           	299.148     	6           	127         	0           	Open  	;
 P-289           	J-176           	I-AV-17         	670.429     	10          	147         	0           	Open  	;
 P-29            	J-43            	I-AV-151        	1209.098    	6           	152         	0           	Open  	;
 P-290           	J-344           	J-345           	1143.698    	2           	127         	0           	Open  	;
 P-291           	J-126           	J-346           	879.049     	2           	127         	0           	Open  	;
 P-292           	J-119           	J-347           	2328.58     	2           	127         	0           	Open  	;
 P-293           	J-306           	I-AV-103        	974.039     	2           	127         	0           	Open  	;
 P-294           	J-292           	J-348           	389.769     	2           	127         	0           	Open  	;
 P-295           	J-349           	J-350           	369.63      	2           	127         	0           	Open  	;
 P-296           	J-160           	J-351           	834.869     	2           	127         	0           	Open  	;
 P-297           	J-308           	J-34            	3679.908    	6           	152         	0           	Open  	;
 P-298           	J-286           	J-352           	4195.048    	4           	127         	0           	Open  	;
 P-299           	J-194           	I-AV-23         	1217.77     	2           	127         	0           	Open  	;
 P-3             	J-5             	J-6             	2689.428    	6           	145         	0           	Open  	;
 P-30            	J-44            	I-AV-32         	1994.958    	8           	152         	0           	Open  	;
 P-300           	J-353           	J-322           	229.63      	2           	127         	0           	Open  	;
 P-301           	J-47            	J-354           	463.678     	2           	127         	0           	Open  	;
 P-302           	J-355           	J-356           	963.869     	2           	127         	0           	Open  	;
 P-303           	J-191           	J-357           	408.88      	2           	127         	0           	Open  	;
 P-304           	J-229           	J-358           	556.53      	2           	127         	0           	Open  	;
 P-305           	J-325           	J-161           	359.109     	2           	127         	0           	Open  	;
 P-306           	J-329           	J-359           	2086.398    	3           	127         	0           	Open  	;
 P-307           	J-272           	J-271           	617.01      	2           	127         	0           	Open  	;
 P-308           	J-308           	J-360           	724.059     	2           	127         	0           	Open  	;
 P-309           	J-105           	J-361           	2465.33     	4           	127         	0           	Open  	;
 P-31            	J-46            	J-37            	3318.05     	6           	152         	0           	Open  	;
 P-310           	J-301           	J-362           	773.369     	2           	127         	0           	Open  	;
 P-311           	J-153           	I-AV-15         	754.83      	4           	152         	0           	Open  	;
 P-312           	J-364           	J-72            	3726.75     	4           	152         	0           	Open  	;
 P-313           	J-359           	J-365           	468.39      	3           	127         	0           	Open  	;
 P-314           	J-366           	I-AV-131        	1334.63     	4           	152         	0           	Open  	;
 P-315           	J-65            	J-367           	426.808     	6           	152         	0           	Open  	;
 P-316           	J-186           	J-13            	2108.51     	4           	152         	0           	Open  	;
 P-317           	J-290           	I-AV-21         	1648.66     	6           	152         	0           	Open  	;
 P-318           	J-279           	I-AV-9          	1332.109    	4           	152         	0           	Open  	;
 P-319           	J-331           	J-345           	1415.818    	6           	152         	0           	Open  	;
 P-32            	J-6             	J-47            	3031.458    	6           	152         	0           	Open  	;
 P-320           	J-317           	I-AV-22         	1194.729    	6           	152         	0           	Open  	;
 P-321           	J-368           	J-369           	325.2       	6           	152         	0           	Open  	;
 P-322           	J-198           	J-191           	609.82      	4           	152         	0           	Open  	;
 P-323           	J-12            	J-25            	272.239     	6           	127         	0           	Open  	;
 P-324           	J-370           	J-371           	2217.468    	3           	152         	0           	Open  	;
 P-325           	J-348           	I-AV-138        	1233.369    	2           	127         	0           	Open  	;
 P-326           	J-348           	J-250           	2214.33     	2           	127         	0           	Open  	;
 P-327           	J-172           	I-AV-28         	1223.369    	8           	152         	0           	Open  	;
 P-328           	J-374           	J-183           	1577.229    	3           	152         	0           	Open  	;
 P-329           	J-82            	I-AV-127        	3786.688    	4           	152         	0           	Open  	;
 P-33            	J-25            	J-37            	254.11      	6           	152         	0           	Open  	;
 P-330           	J-154           	I-AV-140        	1572        	12          	152         	0           	Open  	;
 P-331           	J-306           	I-AV-104        	1959.229    	8           	152         	0           	Open  	;
 P-332           	J-30            	J-154           	10.359      	6           	150         	0           	Open  	;
 P-333           	J-139           	I-AV-44         	2478.5      	6           	145         	0           	Open  	;
 P-334           	J-256           	J-210           	2541.6      	6           	152         	0           	Open  	;
 P-335           	J-313           	I-AV-37         	1310.489    	8           	147         	0           	Open  	;
 P-336           	J-376           	J-290           	1031.81     	6           	152         	0           	Open  	;
 P-337           	J-377           	J-58            	10714.49    	4           	152         	0           	Open  	;
 P-338           	J-12            	J-257           	232.259     	6           	127         	0           	Open  	;
 P-339           	J-238           	J-377           	4591.77     	4           	152         	0           	Open  	;
 P-34            	J-48            	I-AV-31         	828.968     	6           	152         	0           	Open  	;
 P-340           	J-302           	I-AV-145        	1225.068    	3           	127         	0           	Open  	;
 P-341           	J-379           	I-AV-110        	2627.208    	8           	152         	0           	Open  	;
 P-342           	J-34            	I-AV-70         	1271.56     	6           	152         	0           	Open  	;
 P-343           	J-149           	J-131           	13.829      	2           	127         	0           	Open  	;
 P-344           	O-AV-9          	O-AV-144        	4595.708    	4           	152         	0           	Open  	;
 P-345           	O-WTP           	J-141           	154.85      	6           	152         	0           	Open  	;
 P-346           	J-381           	J-298           	6988.85     	4           	152         	0           	Open  	;
 P-347           	J-247           	J-331           	1348.588    	6           	152         	0           	Open  	;
 P-348           	J-71            	I-AV-128        	997.7       	6           	152         	0           	Open  	;
 P-349           	J-341           	J-382           	512.08      	4           	127         	0           	Open  	;
 P-35            	J-50            	I-AV-38         	4407.83     	6           	145         	0           	Open  	;
 P-350           	J-376           	J-344           	878.94      	2           	127         	0           	Open  	;
 P-351           	J-383           	J-72            	1693.89     	4           	152         	0           	Open  	;
 P-352           	J-237           	I-AV-113        	1214.438    	4           	152         	0           	Open  	;
 P-353           	J-50            	J-89            	327.459     	6           	145         	0           	Open  	;
 P-354           	J-250           	J-384           	3080.36     	2           	127         	0           	Open  	;
 P-355           	J-115           	I-AV-47         	1184.52     	10          	147         	0           	Open  	;
 P-356           	J-179           	J-368           	1404.348    	6           	152         	0           	Open  	;
 P-357           	J-54            	J-385           	1303.29     	6           	127         	0           	Open  	;
 P-358           	J-385           	J-386           	2757.5      	4           	127         	0           	Open  	;
 P-359           	J-227           	J-387           	318.57      	6           	152         	0           	Open  	;
 P-36            	J-52            	J-439           	132.169     	8           	152         	0           	Open  	;
 P-360           	J-374           	I-AV-139        	1193.078    	6           	152         	0           	Open  	;
 P-361           	J-292           	J-246           	2713.12     	6           	152         	0           	Open  	;
 P-362           	J-268           	J-267           	4225.338    	6           	152         	0           	Open  	;
 P-363           	J-152           	J-142           	2468.05     	6           	152         	0           	Open  	;
 P-364           	O-AV-10         	J-87            	1293.119    	6           	152         	0           	Open  	;
 P-365           	J-101           	J-388           	862.158     	2           	127         	0           	Open  	;
 P-366           	J-389           	J-256           	3947.54     	6           	152         	0           	Open  	;
 P-367           	J-206           	J-390           	247.66      	4           	127         	0           	Open  	;
 P-368           	J-233           	J-391           	4.46        	10          	147         	0           	Open  	;
 P-369           	J-79            	J-422           	18.28       	8           	127         	0           	Open  	;
 P-37            	J-54            	I-AV-111        	3797.55     	8           	152         	0           	Open  	;
 P-370           	J-93            	J-233           	725.03      	10          	147         	0           	Open  	;
 P-371           	J-122           	J-194           	346.579     	2           	127         	0           	Open  	;
 P-372           	J-392           	J-393           	1686.92     	8           	152         	0           	Open  	;
 P-373           	J-204           	I-AV-59         	272.92      	10          	152         	0           	Open  	;
 P-374           	J-162           	J-436           	69.888      	6           	152         	0           	Open  	;
 P-375           	J-110           	J-435           	1633.65     	6           	152         	0           	Open  	;
 P-376           	J-387           	I-AV-49         	1134.688    	6           	152         	0           	Open  	;
 P-377           	J-34            	I-AV-67         	4082.958    	6           	152         	0           	Open  	;
 P-378           	J-61            	J-319           	1806.89     	4           	152         	0           	Open  	;
 P-379           	J-237           	J-396           	2606.138    	6           	152         	0           	Open  	;
 P-38            	J-56            	J-57            	1340.098    	3           	152         	0           	Open  	;
 P-380           	J-369           	J-374           	915.09      	6           	152         	0           	Open  	;
 P-381           	J-188           	I-AV-116        	1158.02     	8           	152         	0           	Open  	;
 P-382           	J-134           	I-AV-84         	3695.56     	6           	152         	0           	Open  	;
 P-383           	J-279           	J-80            	396.359     	6           	152         	0           	Open  	;
 P-384           	J-273           	I-AV-2          	2893.78     	6           	152         	0           	Open  	;
 P-385           	J-345           	J-376           	543.15      	6           	152         	0           	Open  	;
 P-386           	J-397           	J-64            	6016.95     	6           	152         	0           	Open  	;
 P-387           	J-398           	J-66            	8215.208    	4           	152         	0           	Open  	;
 P-388           	J-267           	J-110           	6273.229    	6           	152         	0           	Open  	;
 P-389           	J-399           	O-6B            	2959.178    	3           	152         	0           	Open  	;
 P-39            	J-51            	J-49            	1403.359    	10          	147         	0           	Open  	;
 P-390           	J-273           	J-400           	1123.729    	2           	127         	0           	Open  	;
 P-391           	J-391           	J-115           	725.03      	10          	147         	0           	Open  	;
 P-392           	J-401           	J-29            	2582.61     	4           	152         	0           	Open  	;
 P-393           	J-328           	I-AV-24         	4323.79     	8           	152         	0           	Open  	;
 P-394           	J-93            	J-402           	1013.88     	10          	147         	0           	Open  	;
 P-395           	J-219           	J-403           	2589.05     	3           	152         	0           	Open  	;
 P-396           	J-176           	I-AV-18         	1273.66     	8           	147         	0           	Open  	;
 P-397           	J-404           	J-163           	7126.378    	4           	152         	0           	Open  	;
 P-398           	O-AV-11         	J-88            	966.7       	6           	152         	0           	Open  	;
 P-399           	J-311           	J-264           	1308.619    	6           	152         	0           	Open  	;
 P-4             	J-7             	J-8             	927.169     	6           	152         	0           	Open  	;
 P-40            	J-58            	J-59            	1666.91     	2           	127         	0           	Open  	;
 P-400           	J-297           	J-405           	1539.619    	6           	152         	0           	Open  	;
 P-401           	J-288           	J-159           	576.419     	6           	152         	0           	Open  	;
 P-402           	J-392           	J-394           	142.119     	6           	152         	0           	Open  	;
 P-403           	J-373           	J-132           	35.508      	8           	152         	0           	Open  	;
 P-404           	J-310           	I-AV-167        	1150.989    	6           	152         	0           	Open  	;
 P-405           	J-403           	J-406           	2954.1      	3           	152         	0           	Open  	;
 P-406           	J-123           	J-433           	4075.59     	8           	152         	0           	Open  	;
 P-407           	J-337           	J-328           	780.799     	8           	152         	0           	Open  	;
 P-408           	J-100           	I-AV-35         	1525.598    	6           	152         	0           	Open  	;
 P-409           	J-282           	J-349           	410.44      	2           	127         	0           	Open  	;
 P-41            	J-60            	J-61            	2394.62     	4           	152         	0           	Open  	;
 P-410           	I-AV-12         	J-88            	1062.109    	6           	152         	0           	Open  	;
 P-411           	J-407           	J-392           	80.778      	6           	152         	0           	Open  	;
 P-412           	J-363           	I-AV-16         	1204.88     	4           	127         	0           	Open  	;
 P-413           	J-340           	J-434           	579.609     	8           	152         	0           	Open  	;
 P-414           	J-206           	J-409           	880.89      	4           	127         	0           	Open  	;
 P-415           	J-410           	J-411           	4512.31     	2           	127         	0           	Open  	;
 P-416           	J-412           	J-413           	681.69      	3           	127         	0           	Open  	;
 P-417           	J-363           	J-319           	3334.58     	4           	152         	0           	Open  	;
 P-418           	J-371           	J-246           	533.669     	3           	152         	0           	Open  	;
 P-419           	J-368           	J-414           	302.769     	2           	127         	0           	Open  	;
 P-42            	J-62            	J-63            	99.168      	6           	152         	0           	Open  	;
 P-420           	J-371           	J-415           	975.848     	3           	127         	0           	Open  	;
 P-421           	J-349           	J-416           	531.739     	2           	127         	0           	Open  	;
 P-422           	J-210           	J-179           	1773.958    	6           	152         	0           	Open  	;
 P-423           	J-399           	J-412           	24.579      	3           	127         	0           	Open  	;
 P-424           	J-403           	J-417           	3960.25     	3           	152         	0           	Open  	;
 P-425           	J-412           	J-418           	2315.34     	6           	127         	0           	Open  	;
 P-426           	J-86            	J-321           	964.489     	8           	152         	0           	Open  	;
 P-427           	J-379           	I-AV-108        	1115.18     	6           	127         	0           	Open  	;
 P-428           	J-302           	J-75            	265.028     	4           	152         	0           	Open  	;
 P-429           	J-316           	J-419           	11810.19    	8           	127         	0           	Open  	;
 P-43            	J-64            	I-AV-7          	1227.578    	6           	152         	0           	Open  	;
 P-430           	J-375           	I-AV-105        	1100.068    	8           	152         	0           	Open  	;
 P-431           	J-178           	I-AV-42         	1166.078    	6           	145         	0           	Open  	;
 P-432           	J-208           	J-207           	36.38       	6           	152         	0           	Open  	;
 P-433           	J-407           	I-AV-50         	263.38      	6           	152         	0           	Open  	;
 P-434           	J-369           	J-420           	584.968     	2           	127         	0           	Open  	;
 P-435           	J-389           	J-297           	193.41      	6           	152         	0           	Open  	;
 P-436           	J-158           	I-AV-126        	2500.448    	4           	152         	0           	Open  	;
 P-437           	J-27            	J-430           	1713.989    	4           	152         	0           	Open  	;
 P-438           	J-98            	I-AV-121        	1064.718    	8           	152         	0           	Open  	;
 P-439           	J-321           	J-158           	1155.359    	4           	152         	0           	Open  	;
 P-44            	J-66            	J-39            	6848.6      	4           	152         	0           	Open  	;
 P-440           	J-422           	I-AV-60         	706.15      	8           	127         	0           	Open  	;
 P-441           	J-422           	I-AV-61         	1232.098    	8           	150         	0           	Open  	;
 P-442           	J-104           	I-AV-124        	1385.25     	8           	150         	0           	Open  	;
 P-443           	J-76            	Marcus_Well     	1089.338    	8           	150         	0           	Open  	;
 P-444           	J-119           	Turkey_Mountain 	1510.4      	8           	150         	0           	Open  	;
 P-445           	J-423           	J-71            	301.79      	6           	152         	0           	Open  	;
 P-446           	J-294           	J-423           	237.57      	6           	152         	0           	Open  	;
 P-447           	J-423           	I-AV-129        	1385.448    	8           	150         	0           	Open  	;
 P-448           	J-14            	Buffalo_Horn_Branch	881.82      	6           	127         	0           	Open  	;
 P-449           	J-46            	EdenElementary  	1124.91     	6           	152         	0           	Open  	;
 P-45            	J-53            	J-67            	3652.01     	4           	152         	0           	Open  	;
 P-450           	O-AV-13         	J-53            	1260.4      	8           	152         	0           	Open  	;
 P-451           	J-424           	J-32            	3960.428    	3           	127         	0           	Open  	;
 P-452           	I-AV-14         	J-152           	1091.54     	4           	152         	0           	Open  	;
 P-453           	O-AV-15         	J-363           	4448.688    	4           	152         	0           	Open  	;
 P-454           	J-303           	J-22            	328.48      	3           	127         	0           	Open  	;
 P-455           	J-303           	Big_Elk         	865.289     	3           	127         	0           	Open  	;
 P-456           	O-AV-16         	J-408           	2155.02     	4           	127         	0           	Open  	;
 P-457           	J-16            	Clearwell       	267.648     	3           	127         	0           	Open  	;
 P-458           	J-36            	Middlefork      	228.929     	3           	127         	0           	Open  	;
 P-459           	O-AV-17         	J-320           	1269.218    	10          	147         	0           	Open  	;
 P-46            	J-49            	J-45            	1209.01     	8           	147         	0           	Open  	;
 P-460           	O-AV-18         	I-1B            	1265.54     	8           	147         	0           	Open  	;
 P-461           	J-26            	Spears_Hollow   	251.46      	3           	127         	0           	Open  	;
 P-462           	J-333           	J-25            	541.94      	6           	152         	0           	Open  	;
 P-463           	J-333           	Eden            	48.81       	3           	127         	0           	Open  	;
 P-464           	J-4             	J-41            	5579.878    	10          	150         	0           	Open  	;
 P-465           	J-425           	J-428           	129.679     	2           	152         	0           	Open  	;
 P-466           	I-AV-19         	J-122           	1173.81     	12          	127         	0           	Open  	;
 P-467           	J-427           	J-130           	203.36      	8           	147         	0           	Open  	;
 P-468           	J-428           	J-26            	123.73      	2           	152         	0           	Open  	;
 P-469           	I-1A            	J-23            	3943.388    	8           	147         	0           	Open  	;
 P-47            	J-68            	I-AV-136        	5183.66     	4           	152         	0           	Open  	;
 P-470           	O-3B            	J-440           	94.58       	3           	127         	0           	Open  	;
 P-471           	O-1B            	J-133           	831.33      	8           	147         	0           	Open  	;
 P-472           	O-P292          	I-AV-146        	2944.3      	4           	152         	0           	Open  	;
 P-473           	J-150           	O-AV-1          	478.148     	6           	152         	0           	Open  	;
 P-474           	J-29            	J-153           	245.11      	4           	152         	0           	Open  	;
 P-475           	O-4A            	I-AV-135        	10856.258   	4           	152         	0           	Open  	;
 P-476           	I-4B            	J-394           	797.51      	6           	152         	0           	Open  	;
 P-477           	J-10            	J-38            	376.73      	6           	152         	0           	Open  	;
 P-478           	I-6B            	J-247           	845.65      	3           	152         	0           	Open  	;
 P-479           	O-BIG_ELKa      	J-303           	1394.338    	6           	152         	0           	Open  	;
 P-48            	J-70            	J-423           	3414.168    	6           	152         	0           	Open  	;
 P-480           	I-FASTLANE      	I-AV-94         	1322.359    	8           	152         	0           	Open  	;
 P-481           	J-380           	I-AV-62         	1394.54     	4           	152         	0           	Open  	;
 P-482           	J-429           	J-206           	477.178     	4           	127         	0           	Open  	;
 P-483           	J-430           	J-380           	586.64      	4           	152         	0           	Open  	;
 P-484           	J-429           	J-430           	295.678     	6           	127         	0           	Open  	;
 P-485           	J-226           	J-262           	13.949      	6           	127         	0           	Open  	;
 P-486           	J-431           	J-139           	2241.76     	6           	145         	0           	Open  	;
 P-487           	J-120           	J-431           	57.43       	6           	127         	0           	Open  	;
 P-488           	J-432           	J-156           	2805.75     	6           	152         	0           	Open  	;
 P-489           	J-277           	J-432           	39.598      	6           	127         	0           	Open  	;
 P-49            	J-72            	J-73            	6867.818    	4           	152         	0           	Open  	;
 P-490           	J-433           	J-392           	978.03      	8           	152         	0           	Open  	;
 P-491           	J-35            	J-433           	0.61        	6           	127         	0           	Open  	;
 P-492           	I-AV-20         	O-AV-25         	643.729     	12          	152         	0           	Open  	;
 P-493           	J-434           	I-AV-95         	481.01      	8           	152         	0           	Open  	;
 P-494           	J-434           	J-1             	31.388      	6           	127         	0           	Open  	;
 P-495           	J-435           	J-134           	232.77      	6           	152         	0           	Open  	;
 P-496           	J-435           	J-355           	19.93       	6           	127         	0           	Open  	;
 P-497           	J-436           	I-AV-51         	1801.468    	6           	152         	0           	Open  	;
 P-498           	O-AV-21         	J-212           	3375.5      	6           	152         	0           	Open  	;
 P-499           	O-2B            	J-437           	174         	6           	145         	0           	Open  	;
 P-5             	J-9             	J-3             	2834.428    	10          	152         	0           	Open  	;
 P-50            	J-74            	I-AV-147        	5005.458    	4           	152         	0           	Open  	;
 P-500           	J-438           	I-AV-43         	4219.338    	6           	145         	0           	Open  	;
 P-501           	J-438           	I-2B            	174.919     	6           	145         	0           	Open  	;
 P-502           	O-AV-22         	J-122           	1529.958    	6           	152         	0           	Open  	;
 P-503           	O-AV-23         	J-111           	1228.04     	2           	127         	0           	Open  	;
 P-504           	O-AV-24         	I-AV-64         	1580.619    	8           	152         	0           	Open  	;
 P-505           	I-AV-25         	J-132           	1198.479    	12          	152         	0           	Open  	;
 P-506           	O-AV-26         	J-166           	1230.438    	4           	152         	0           	Open  	;
 P-507           	O-AV-27         	J-317           	2067.75     	6           	152         	0           	Open  	;
 P-508           	O-AV-28         	J-373           	2020.89     	8           	152         	0           	Open  	;
 P-509           	O-AV-29         	J-168           	1215.318    	4           	152         	0           	Open  	;
 P-51            	J-76            	J-77            	741.52      	6           	152         	0           	Open  	;
 P-510           	O-AV-30         	J-209           	4659.95     	3           	152         	0           	Open  	;
 P-511           	O-AV-31         	J-49            	1331.958    	6           	152         	0           	Open  	;
 P-512           	O-AV-32         	J-45            	1223.568    	8           	152         	0           	Open  	;
 P-513           	O-AV-33         	I-AV-45         	1104.848    	4           	152         	0           	Open  	;
 P-514           	O-AV-34         	J-45            	536.848     	8           	147         	0           	Open  	;
 P-515           	O-AV-35         	I-AV-65         	1553.968    	6           	152         	0           	Open  	;
 P-516           	O-AV-36         	J-189           	1169.51     	8           	147         	0           	Open  	;
 P-517           	O-AV-37         	J-293           	1156.598    	8           	147         	0           	Open  	;
 P-518           	O-AV-38         	J-51            	749.84      	6           	145         	0           	Open  	;
 P-519           	O-AV-39         	J-322           	1596.369    	2           	127         	0           	Open  	;
 P-52            	J-78            	J-79            	136.96      	6           	152         	0           	Open  	;
 P-520           	I-AV-40         	J-89            	1264.13     	6           	152         	0           	Open  	;
 P-521           	O-AV-41         	J-90            	748.059     	8           	147         	0           	Open  	;
 P-522           	O-AV-42         	J-232           	4879.648    	6           	145         	0           	Open  	;
 P-523           	O-AV-43         	J-178           	947.739     	6           	145         	0           	Open  	;
 P-524           	O-AV-44         	J-97            	1112.16     	6           	145         	0           	Open  	;
 P-525           	O-AV-45         	I-AV-66         	1745.52     	4           	152         	0           	Open  	;
 P-526           	J-149           	O-AV-152        	5721.83     	12          	152         	0           	Open  	;
 P-527           	O-AV-46         	J-287           	2336.09     	4           	127         	0           	Open  	;
 P-528           	O-AV-47         	J-51            	1487.119    	10          	147         	0           	Open  	;
 P-529           	I-AV-48         	J-120           	1118.479    	2           	152         	0           	Open  	;
 P-53            	J-80            	J-81            	7602.858    	6           	127         	0           	Open  	;
 P-530           	O-AV-49         	J-395           	9067.94     	6           	152         	0           	Open  	;
 P-531           	O-AV-50         	J-145           	3183.07     	6           	152         	0           	Open  	;
 P-532           	O-AV-51         	O-4B            	788.429     	6           	152         	0           	Open  	;
 P-533           	O-AV-52         	J-162           	1250.948    	6           	152         	0           	Open  	;
 P-534           	I-AV-53         	J-393           	1648.39     	8           	152         	0           	Open  	;
 P-535           	I-AV-54         	J-128           	1511.93     	8           	147         	0           	Open  	;
 P-536           	O-AV-55         	O-AV-54         	1329.938    	8           	147         	0           	Open  	;
 P-537           	O-AV-56         	J-177           	3700.628    	6           	145         	0           	Open  	;
 P-538           	O-AV-57         	J-329           	1807.17     	3           	127         	0           	Open  	;
 P-539           	O-AV-58         	J-200           	3415.948    	10          	152         	0           	Open  	;
 P-54            	J-82            	J-83            	432.648     	2           	127         	0           	Open  	;
 P-540           	O-AV-59         	J-199           	3479.79     	10          	152         	0           	Open  	;
 P-541           	O-AV-60         	J-203           	3847.958    	8           	127         	0           	Open  	;
 P-542           	O-AV-61         	Buck_Creek      	1353.239    	8           	150         	0           	Open  	;
 P-543           	O-AV-62         	J-101           	5271.438    	4           	152         	0           	Open  	;
 P-544           	I-AV-63         	J-101           	1226.39     	4           	152         	0           	Open  	;
 P-545           	O-AV-64         	O-AV-53         	4432.35     	8           	152         	0           	Open  	;
 P-546           	O-AV-65         	J-161           	1180.41     	6           	152         	0           	Open  	;
 P-547           	O-AV-66         	I-AV-88         	648.408     	4           	152         	0           	Open  	;
 P-548           	O-AV-67         	J-77            	1604.239    	6           	152         	0           	Open  	;
 P-549           	I-AV-68         	J-99            	969.83      	6           	152         	0           	Open  	;
 P-55            	J-84            	J-85            	923.14      	3           	152         	0           	Open  	;
 P-550           	O-AV-69         	J-34            	837.359     	6           	152         	0           	Open  	;
 P-551           	J-91            	O-AV-12         	1299.328    	6           	152         	0           	Open  	;
 P-552           	J-153           	O-AV-14         	3673.178    	4           	152         	0           	Open  	;
 P-553           	O-AV-70         	I-AV-71         	2246.658    	6           	152         	0           	Open  	;
 P-554           	O-AV-71         	J-268           	1304.01     	6           	152         	0           	Open  	;
 P-555           	I-AV-72         	J-267           	1280.14     	4           	152         	0           	Open  	;
 P-556           	O-AV-73         	O-AV-72         	1658.869    	4           	152         	0           	Open  	;
 P-557           	J-123           	O-AV-19         	1742        	12          	127         	0           	Open  	;
 P-558           	J-133           	O-AV-20         	1668.568    	12          	152         	0           	Open  	;
 P-559           	O-AV-74         	J-173           	1706.04     	3           	127         	0           	Open  	;
 P-56            	J-86            	I-AV-122        	1149.39     	4           	152         	0           	Open  	;
 P-560           	O-AV-75         	J-307           	4973.24     	6           	152         	0           	Open  	;
 P-561           	O-AV-76         	J-258           	2154.85     	6           	127         	0           	Open  	;
 P-562           	O-AV-77         	J-24            	1564.27     	6           	152         	0           	Open  	;
 P-563           	O-AV-78         	J-73            	3880.59     	4           	152         	0           	Open  	;
 P-564           	I-AV-79         	J-337           	1254.77     	8           	152         	0           	Open  	;
 P-565           	O-AV-80         	J-196           	8826.338    	4           	152         	0           	Open  	;
 P-566           	O-AV-81         	J-197           	9213.12     	4           	152         	0           	Open  	;
 P-567           	O-AV-82         	J-160           	2550.07     	4           	152         	0           	Open  	;
 P-568           	I-AV-83         	J-225           	4399.81     	6           	152         	0           	Open  	;
 P-569           	O-AV-84         	O-AV-83         	2923.148    	6           	152         	0           	Open  	;
 P-57            	J-87            	J-88            	1441.958    	6           	145         	0           	Open  	;
 P-570           	O-AV-85         	J-69            	11589.838   	4           	152         	0           	Open  	;
 P-571           	O-AV-86         	O-AV-79         	1333.3      	8           	152         	0           	Open  	;
 P-572           	I-AV-87         	J-301           	2230.378    	8           	127         	0           	Open  	;
 P-573           	O-AV-88         	J-236           	910.489     	4           	152         	0           	Open  	;
 P-574           	J-90            	O-AV-40         	1158.79     	6           	152         	0           	Open  	;
 P-575           	O-AV-89         	O-AV-68         	5292.398    	6           	152         	0           	Open  	;
 P-576           	I-AV-90         	J-169           	4102.128    	8           	152         	0           	Open  	;
 P-577           	I-AV-91         	O-AV-87         	3889.668    	8           	127         	0           	Open  	;
 P-578           	O-AV-92         	O-AV-91         	3648.948    	8           	127         	0           	Open  	;
 P-579           	O-AV-93         	J-147           	2471.59     	8           	152         	0           	Open  	;
 P-58            	J-330           	J-245           	9462.718    	6           	152         	0           	Open  	;
 P-580           	J-121           	O-AV-48         	1999.91     	2           	152         	0           	Open  	;
 P-581           	O-AV-94         	O-AV-90         	5923.229    	8           	152         	0           	Open  	;
 P-582           	O-AV-95         	J-379           	1204.609    	8           	152         	0           	Open  	;
 P-583           	O-AV-96         	J-53            	2390.79     	8           	152         	0           	Open  	;
 P-584           	O-AV-97         	J-218           	1125.718    	6           	152         	0           	Open  	;
 P-585           	O-AV-98         	J-11            	1332.458    	6           	152         	0           	Open  	;
 P-586           	O-AV-99         	J-94            	1343.64     	6           	152         	0           	Open  	;
 P-587           	O-AV-100        	I-AV-130        	10223.2     	6           	152         	0           	Open  	;
 P-588           	O-AV-101        	I-AV-102        	386.35      	8           	152         	0           	Open  	;
 P-589           	O-AV-102        	J-306           	2909.26     	8           	152         	0           	Open  	;
 P-59            	J-142           	I-BIG_ELKa      	1684.448    	6           	152         	0           	Open  	;
 P-590           	O-AV-103        	J-252           	1818.14     	2           	127         	0           	Open  	;
 P-591           	O-AV-104        	J-375           	1975.43     	8           	152         	0           	Open  	;
 P-592           	O-AV-105        	I-AV-106        	1157.15     	8           	152         	0           	Open  	;
 P-593           	J-102           	O-AV-63         	1232.66     	4           	152         	0           	Open  	;
 P-594           	O-AV-106        	J-340           	1417.66     	8           	152         	0           	Open  	;
 P-595           	O-AV-107        	J-332           	685         	3           	152         	0           	Open  	;
 P-596           	O-AV-108        	J-410           	2573.158    	6           	127         	0           	Open  	;
 P-597           	I-AV-109        	I-AV-120        	608.169     	6           	152         	0           	Open  	;
 P-598           	O-AV-110        	J-54            	1209.81     	8           	152         	0           	Open  	;
 P-599           	O-AV-111        	J-55            	1162.948    	8           	152         	0           	Open  	;
 P-6             	Honey_Branchb   	J-3             	551.32      	10          	147         	0           	Open  	;
 P-60            	J-92            	J-93            	951.619     	10          	152         	0           	Open  	;
 P-600           	O-AV-112        	I-AV-114        	2165.468    	8           	152         	0           	Open  	;
 P-601           	O-AV-113        	J-55            	1539.568    	4           	152         	0           	Open  	;
 P-602           	O-AV-114        	I-AV-115        	1733.838    	8           	152         	0           	Open  	;
 P-603           	O-AV-115        	J-188           	1320.208    	8           	152         	0           	Open  	;
 P-604           	O-AV-116        	I-AV-117        	3021.398    	8           	152         	0           	Open  	;
 P-605           	O-AV-117        	I-AV-118        	1721.468    	8           	152         	0           	Open  	;
 P-606           	O-AV-118        	J-98            	1299.89     	8           	152         	0           	Open  	;
 P-607           	O-AV-119        	J-98            	1662.77     	4           	152         	0           	Open  	;
 P-608           	J-11            	O-AV-109        	1061.79     	6           	152         	0           	Open  	;
 P-609           	O-AV-120        	J-12            	1367.8      	6           	152         	0           	Open  	;
 P-61            	J-94            	J-95            	261.5       	6           	127         	0           	Open  	;
 P-610           	O-AV-121        	J-86            	1244.75     	8           	152         	0           	Open  	;
 P-611           	O-AV-122        	J-82            	3242.34     	4           	152         	0           	Open  	;
 P-612           	O-AV-123        	J-203           	6164.048    	8           	152         	0           	Open  	;
 P-613           	O-AV-124        	Little_Rockcastle	68.388      	8           	150         	0           	Open  	;
 P-614           	O-AV-125        	J-321           	5516.778    	8           	152         	0           	Open  	;
 P-615           	O-AV-126        	J-421           	1925.55     	4           	152         	0           	Open  	;
 P-616           	O-AV-127        	J-222           	7250.75     	4           	152         	0           	Open  	;
 P-617           	O-AV-128        	J-364           	1352.119    	6           	152         	0           	Open  	;
 P-618           	O-AV-129        	I-AV-134        	63.729      	8           	150         	0           	Open  	;
 P-619           	O-AV-130        	J-70            	1160.328    	6           	152         	0           	Open  	;
 P-62            	J-87            	J-96            	1339.318    	4           	145         	0           	Open  	;
 P-620           	O-AV-131        	J-43            	1600.958    	4           	152         	0           	Open  	;
 P-621           	O-AV-132        	J-216           	951.95      	4           	152         	0           	Open  	;
 P-622           	O-AV-133        	I-4A            	1082.088    	4           	152         	0           	Open  	;
 P-623           	O-AV-134        	292_South       	864.348     	8           	150         	0           	Open  	;
 P-624           	O-AV-135        	J-68            	992.348     	4           	152         	0           	Open  	;
 P-625           	O-AV-136        	I-AV-85         	8632.5      	4           	152         	0           	Open  	;
 P-626           	O-AV-137        	J-292           	1233.698    	6           	152         	0           	Open  	;
 P-627           	O-AV-138        	J-372           	2742.54     	2           	127         	0           	Open  	;
 P-628           	O-AV-139        	I-AV-75         	1900.15     	6           	152         	0           	Open  	;
 P-629           	O-AV-140        	J-288           	2288.02     	12          	152         	0           	Open  	;
 P-63            	J-97            	J-50            	26.409      	6           	152         	0           	Open  	;
 P-630           	I-AV-141        	J-7             	1492.828    	6           	152         	0           	Open  	;
 P-631           	O-AV-142        	J-185           	1842.88     	2           	127         	0           	Open  	;
 P-632           	O-AV-143        	I-AV-155        	4853.938    	6           	152         	0           	Open  	;
 P-633           	I-AV-144        	J-186           	1175.568    	4           	152         	0           	Open  	;
 P-634           	O-AV-145        	J-378           	1429.51     	3           	127         	0           	Open  	;
 P-635           	O-AV-146        	J-302           	4333.95     	4           	152         	0           	Open  	;
 P-636           	O-AV-147        	I-AV-149        	3036.37     	4           	152         	0           	Open  	;
 P-637           	I-AV-148        	J-75            	2573.33     	4           	152         	0           	Open  	;
 P-638           	O-AV-149        	O-AV-148        	873.71      	4           	152         	0           	Open  	;
 P-639           	O-AV-150        	J-75            	5559.188    	6           	152         	0           	Open  	;
 P-64            	J-58            	I-AV-119        	5488.93     	4           	152         	0           	Open  	;
 P-640           	O-AV-151        	O-AV-141        	402.82      	6           	152         	0           	Open  	;
 P-641           	I-AV-152        	I-AV-153        	1162.79     	12          	152         	0           	Open  	;
 P-642           	O-AV-153        	J-63            	851.859     	12          	152         	0           	Open  	;
 P-643           	I-AV-154        	J-248           	3461.1      	6           	152         	0           	Open  	;
 P-644           	O-AV-155        	J-119           	1249.188    	6           	152         	0           	Open  	;
 P-645           	O-AV-156        	I-AV-159        	1062.318    	12          	152         	0           	Open  	;
 P-646           	O-AV-157        	J-245           	4257.628    	4           	152         	0           	Open  	;
 P-647           	O-AV-158        	J-221           	2416.06     	6           	152         	0           	Open  	;
 P-648           	O-AV-159        	J-304           	1261.229    	12          	152         	0           	Open  	;
 P-649           	O-AV-160        	I-AV-161        	837.13      	4           	152         	0           	Open  	;
 P-65            	J-99            	J-100           	2511.448    	6           	152         	0           	Open  	;
 P-650           	O-AV-161        	J-74            	1337.78     	4           	152         	0           	Open  	;
 P-651           	O-AV-162        	J-299           	2960.948    	4           	152         	0           	Open  	;
 P-652           	O-AV-163        	O-AV-154        	1699.91     	6           	152         	0           	Open  	;
 P-653           	I-AV-164        	J-381           	2643.948    	6           	152         	0           	Open  	;
 P-654           	I-AV-165        	O-AV-164        	5123.06     	6           	152         	0           	Open  	;
 P-655           	I-AV-166        	O-AV-165        	717.119     	6           	152         	0           	Open  	;
 P-656           	O-AV-167        	O-AV-166        	2572.56     	6           	152         	0           	Open  	;
 P-66            	J-143           	I-AV-96         	1349.948    	8           	152         	0           	Open  	;
 P-67            	J-103           	J-104           	26.11       	8           	152         	0           	Open  	;
 P-68            	J-105           	J-106           	2921.01     	4           	127         	0           	Open  	;
 P-69            	J-107           	J-108           	656.84      	3           	127         	0           	Open  	;
 P-7             	I-WTP           	R-1             	184.77      	16          	152         	0           	Open  	;
 P-70            	J-109           	J-110           	1468.17     	6           	127         	0           	Open  	;
 P-71            	J-111           	J-112           	656.968     	2           	127         	0           	Open  	;
 P-72            	J-113           	J-114           	910.26      	3           	127         	0           	Open  	;
 P-73            	J-115           	J-116           	1201.479    	2           	127         	0           	Open  	;
 P-74            	J-117           	J-118           	347.799     	4           	152         	0           	Open  	;
 P-75            	J-119           	J-63            	612.75      	6           	127         	0           	Open  	;
 P-76            	J-147           	I-AV-13         	3201.59     	8           	152         	0           	Open  	;
 P-77            	J-426           	J-214           	1243.568    	4           	152         	0           	Open  	;
 P-78            	J-124           	J-125           	1750.54     	3           	152         	0           	Open  	;
 P-79            	J-126           	J-127           	1450.479    	4           	152         	0           	Open  	;
 P-8             	J-13            	J-14            	1398.619    	6           	127         	0           	Open  	;
 P-80            	J-128           	J-129           	787.69      	2           	127         	0           	Open  	;
 P-81            	J-113           	J-107           	2365.09     	3           	152         	0           	Open  	;
 P-82            	J-426           	J-419           	64.128      	8           	130         	0           	Open  	;
 P-83            	J-439           	I-AV-93         	1092.229    	8           	152         	0           	Open  	;
 P-84            	J-134           	J-135           	2367.668    	3           	152         	0           	Open  	;
 P-85            	J-136           	J-137           	2567.908    	8           	152         	0           	Open  	;
 P-86            	J-13            	J-81            	925.21      	4           	152         	0           	Open  	;
 P-87            	J-79            	J-138           	891.19      	6           	127         	0           	Open  	;
 P-88            	J-139           	J-140           	665.109     	2           	152         	0           	Open  	;
 P-89            	J-17            	J-141           	394.398     	6           	127         	0           	Open  	;
 P-9             	J-8             	J-15            	1198.41     	2           	127         	0           	Open  	;
 P-90            	J-440           	Calloway        	310.239     	3           	127         	0           	Open  	;
 P-91            	J-144           	J-17            	1778.239    	6           	152         	0           	Open  	;
 P-92            	J-133           	J-123           	13.189      	8           	127         	0           	Open  	;
 P-93            	J-145           	J-146           	478.269     	2           	152         	0           	Open  	;
 P-94            	J-28            	J-440           	195.929     	3           	127         	0           	Open  	;
 P-95            	I-AV-1          	J-80            	1283.989    	6           	152         	0           	Open  	;
 P-96            	O-AV-2          	J-389           	1172.198    	6           	152         	0           	Open  	;
 P-97            	J-61            	J-151           	5064.24     	4           	152         	0           	Open  	;
 P-98            	O-AV-3          	J-311           	1054.56     	6           	152         	0           	Open  	;
 P-99            	J-154           	J-155           	1125.568    	4           	100.0998    	0           	Open  	;
 V-~@AV-1        	I-AV-1          	I-V-~@AV-1      	0.1         	53.55183    	150         	0           	Open  	;
 V-~@AV-10       	I-AV-10         	I-V-~@AV-10     	0.1         	53.55183    	150         	0           	Open  	;
 V-~@AV-100      	I-AV-100        	I-V-~@AV-100    	0.1         	53.55183    	150         	0           	Open  	;
 V-~@AV-101      	I-AV-101        	I-V-~@AV-101    	0.1         	53.55183    	150         	0           	Open  	;
 V-~@AV-102      	I-AV-102        	I-V-~@AV-102    	0.1         	53.55183    	150         	0           	Open  	;
 V-~@AV-103      	I-AV-103        	I-V-~@AV-103    	0.1         	53.55183    	150         	0           	Open  	;
 V-~@AV-104      	I-AV-104        	I-V-~@AV-104    	0.1         	53.55183    	150         	0           	Open  	;
 V-~@AV-105      	I-AV-105        	I-V-~@AV-105    	0.1         	53.55183    	150         	0           	Open  	;
 V-~@AV-106      	I-AV-106        	I-V-~@AV-106    	0.1         	53.55183    	150         	0           	Open  	;
 V-~@AV-107      	I-AV-107        	I-V-~@AV-107    	0.1         	53.55183    	150         	0           	Open  	;
 V-~@AV-108      	I-AV-108        	I-V-~@AV-108    	0.1         	53.55183    	150         	0           	Open  	;
 V-~@AV-109      	I-AV-109        	I-V-~@AV-109    	0.1         	53.55183    	150         	0           	Open  	;
 V-~@AV-11       	I-AV-11         	I-V-~@AV-11     	0.1         	53.55183    	150         	0           	Open  	;
 V-~@AV-110      	I-AV-110        	I-V-~@AV-110    	0.1         	53.55183    	150         	0           	Open  	;
 V-~@AV-111      	I-AV-111        	I-V-~@AV-111    	0.1         	53.55183    	150         	0           	Open  	;
 V-~@AV-112      	I-AV-112        	I-V-~@AV-112    	0.1         	53.55183    	150         	0           	Open  	;
 V-~@AV-113      	I-AV-113        	I-V-~@AV-113    	0.1         	53.55183    	150         	0           	Open  	;
 V-~@AV-114      	I-AV-114        	I-V-~@AV-114    	0.1         	53.55183    	150         	0           	Open  	;
 V-~@AV-115      	I-AV-115        	I-V-~@AV-115    	0.1         	53.55183    	150         	0           	Open  	;
 V-~@AV-116      	I-AV-116        	I-V-~@AV-116    	0.1         	53.55183    	150         	0           	Open  	;
 V-~@AV-117      	I-AV-117        	I-V-~@AV-117    	0.1         	53.55183    	150         	0           	Open  	;
 V-~@AV-118      	I-AV-118        	I-V-~@AV-118    	0.1         	53.55183    	150         	0           	Open  	;
 V-~@AV-119      	I-AV-119        	I-V-~@AV-119    	0.1         	53.55183    	150         	0           	Open  	;
 V-~@AV-12       	I-AV-12         	I-V-~@AV-12     	0.1         	53.55183    	150         	0           	Open  	;
 V-~@AV-120      	I-AV-120        	I-V-~@AV-120    	0.1         	53.55183    	150         	0           	Open  	;
 V-~@AV-121      	I-AV-121        	I-V-~@AV-121    	0.1         	53.55183    	150         	0           	Open  	;
 V-~@AV-122      	I-AV-122        	I-V-~@AV-122    	0.1         	53.55183    	150         	0           	Open  	;
 V-~@AV-123      	I-AV-123        	I-V-~@AV-123    	0.1         	53.55183    	150         	0           	Open  	;
 V-~@AV-124      	I-AV-124        	I-V-~@AV-124    	0.1         	53.55183    	150         	0           	Open  	;
 V-~@AV-125      	I-AV-125        	I-V-~@AV-125    	0.1         	53.55183    	150         	0           	Open  	;
 V-~@AV-126      	I-AV-126        	I-V-~@AV-126    	0.1         	53.55183    	150         	0           	Open  	;
 V-~@AV-127      	I-AV-127        	I-V-~@AV-127    	0.1         	53.55183    	150         	0           	Open  	;
 V-~@AV-128      	I-AV-128        	I-V-~@AV-128    	0.1         	53.55183    	150         	0           	Open  	;
 V-~@AV-129      	I-AV-129        	I-V-~@AV-129    	0.1         	53.55183    	150         	0           	Open  	;
 V-~@AV-13       	I-AV-13         	I-V-~@AV-13     	0.1         	53.55183    	150         	0           	Open  	;
 V-~@AV-130      	I-AV-130        	I-V-~@AV-130    	0.1         	53.55183    	150         	0           	Open  	;
 V-~@AV-131      	I-AV-131        	I-V-~@AV-131    	0.1         	53.55183    	150         	0           	Open  	;
 V-~@AV-132      	I-AV-132        	I-V-~@AV-132    	0.1         	53.55183    	150         	0           	Open  	;
 V-~@AV-133      	I-AV-133        	I-V-~@AV-133    	0.1         	53.55183    	150         	0           	Open  	;
 V-~@AV-134      	I-AV-134        	I-V-~@AV-134    	0.1         	53.55183    	150         	0           	Open  	;
 V-~@AV-135      	I-AV-135        	I-V-~@AV-135    	0.1         	53.55183    	150         	0           	Open  	;
 V-~@AV-136      	I-AV-136        	I-V-~@AV-136    	0.1         	53.55183    	150         	0           	Open  	;
 V-~@AV-137      	I-AV-137        	I-V-~@AV-137    	0.1         	53.55183    	150         	0           	Open  	;
 V-~@AV-138      	I-AV-138        	I-V-~@AV-138    	0.1         	53.55183    	150         	0           	Open  	;
 V-~@AV-139      	I-AV-139        	I-V-~@AV-139    	0.1         	53.55183    	150         	0           	Open  	;
 V-~@AV-14       	I-AV-14         	I-V-~@AV-14     	0.1         	53.55183    	150         	0           	Open  	;
 V-~@AV-140      	I-AV-140        	I-V-~@AV-140    	0.1         	53.55183    	150         	0           	Open  	;
 V-~@AV-141      	I-AV-141        	I-V-~@AV-141    	0.1         	53.55183    	150         	0           	Open  	;
 V-~@AV-142      	I-AV-142        	I-V-~@AV-142    	0.1         	53.55183    	150         	0           	Open  	;
 V-~@AV-143      	I-AV-143        	I-V-~@AV-143    	0.1         	53.55183    	150         	0           	Open  	;
 V-~@AV-144      	I-AV-144        	I-V-~@AV-144    	0.1         	53.55183    	150         	0           	Open  	;
 V-~@AV-145      	I-AV-145        	I-V-~@AV-145    	0.1         	53.55183    	150         	0           	Open  	;
 V-~@AV-146      	I-AV-146        	I-V-~@AV-146    	0.1         	53.55183    	150         	0           	Open  	;
 V-~@AV-147      	I-AV-147        	I-V-~@AV-147    	0.1         	53.55183    	150         	0           	Open  	;
 V-~@AV-148      	I-AV-148        	I-V-~@AV-148    	0.1         	53.55183    	150         	0           	Open  	;
 V-~@AV-149      	I-AV-149        	I-V-~@AV-149    	0.1         	53.55183    	150         	0           	Open  	;
 V-~@AV-15       	I-AV-15         	I-V-~@AV-15     	0.1         	53.55183    	150         	0           	Open  	;
 V-~@AV-150      	I-AV-150        	I-V-~@AV-150    	0.1         	53.55183    	150         	0           	Open  	;
 V-~@AV-151      	I-AV-151        	I-V-~@AV-151    	0.1         	53.55183    	150         	0           	Open  	;
 V-~@AV-152      	I-AV-152        	I-V-~@AV-152    	0.1         	53.55183    	150         	0           	Open  	;
 V-~@AV-153      	I-AV-153        	I-V-~@AV-153    	0.1         	53.55183    	150         	0           	Open  	;
 V-~@AV-154      	I-AV-154        	I-V-~@AV-154    	0.1         	53.55183    	150         	0           	Open  	;
 V-~@AV-155      	I-AV-155        	I-V-~@AV-155    	0.1         	53.55183    	150         	0           	Open  	;
 V-~@AV-156      	I-AV-156        	I-V-~@AV-156    	0.1         	53.55183    	150         	0           	Open  	;
 V-~@AV-157      	I-AV-157        	I-V-~@AV-157    	0.1         	53.55183    	150         	0           	Open  	;
 V-~@AV-158      	I-AV-158        	I-V-~@AV-158    	0.1         	53.55183    	150         	0           	Open  	;
 V-~@AV-159      	I-AV-159        	I-V-~@AV-159    	0.1         	53.55183    	150         	0           	Open  	;
 V-~@AV-16       	I-AV-16         	I-V-~@AV-16     	0.1         	53.55183    	150         	0           	Open  	;
 V-~@AV-160      	I-AV-160        	I-V-~@AV-160    	0.1         	53.55183    	150         	0           	Open  	;
 V-~@AV-161      	I-AV-161        	I-V-~@AV-161    	0.1         	53.55183    	150         	0           	Open  	;
 V-~@AV-162      	I-AV-162        	I-V-~@AV-162    	0.1         	53.55183    	150         	0           	Open  	;
 V-~@AV-163      	I-AV-163        	I-V-~@AV-163    	0.1         	53.55183    	150         	0           	Open  	;
 V-~@AV-164      	I-AV-164        	I-V-~@AV-164    	0.1         	53.55183    	150         	0           	Open  	;
 V-~@AV-165      	I-AV-165        	I-V-~@AV-165    	0.1         	53.55183    	150         	0           	Open  	;
 V-~@AV-166      	I-AV-166        	I-V-~@AV-166    	0.1         	53.55183    	150         	0           	Open  	;
 V-~@AV-167      	I-AV-167        	I-V-~@AV-167    	0.1         	53.55183    	150         	0           	Open  	;
 V-~@AV-17       	I-AV-17         	I-V-~@AV-17     	0.1         	53.55183    	150         	0           	Open  	;
 V-~@AV-18       	I-AV-18         	I-V-~@AV-18     	0.1         	53.55183    	150         	0           	Open  	;
 V-~@AV-19       	I-AV-19         	I-V-~@AV-19     	0.1         	53.55183    	150         	0           	Open  	;
 V-~@AV-2        	I-AV-2          	I-V-~@AV-2      	0.1         	53.55183    	150         	0           	Open  	;
 V-~@AV-20       	I-AV-20         	I-V-~@AV-20     	0.1         	53.55183    	150         	0           	Open  	;
 V-~@AV-21       	I-AV-21         	I-V-~@AV-21     	0.1         	53.55183    	150         	0           	Open  	;
 V-~@AV-22       	I-AV-22         	I-V-~@AV-22     	0.1         	53.55183    	150         	0           	Open  	;
 V-~@AV-23       	I-AV-23         	I-V-~@AV-23     	0.1         	53.55183    	150         	0           	Open  	;
 V-~@AV-24       	I-AV-24         	I-V-~@AV-24     	0.1         	53.55183    	150         	0           	Open  	;
 V-~@AV-25       	I-AV-25         	I-V-~@AV-25     	0.1         	53.55183    	150         	0           	Open  	;
 V-~@AV-26       	I-AV-26         	I-V-~@AV-26     	0.1         	53.55183    	150         	0           	Open  	;
 V-~@AV-27       	I-AV-27         	I-V-~@AV-27     	0.1         	53.55183    	150         	0           	Open  	;
 V-~@AV-28       	I-AV-28         	I-V-~@AV-28     	0.1         	53.55183    	150         	0           	Open  	;
 V-~@AV-29       	I-AV-29         	I-V-~@AV-29     	0.1         	53.55183    	150         	0           	Open  	;
 V-~@AV-3        	I-AV-3          	I-V-~@AV-3      	0.1         	53.55183    	150         	0           	Open  	;
 V-~@AV-30       	I-AV-30         	I-V-~@AV-30     	0.1         	53.55183    	150         	0           	Open  	;
 V-~@AV-31       	I-AV-31         	I-V-~@AV-31     	0.1         	53.55183    	150         	0           	Open  	;
 V-~@AV-32       	I-AV-32         	I-V-~@AV-32     	0.1         	53.55183    	150         	0           	Open  	;
 V-~@AV-33       	I-AV-33         	I-V-~@AV-33     	0.1         	53.55183    	150         	0           	Open  	;
 V-~@AV-34       	I-AV-34         	I-V-~@AV-34     	0.1         	53.55183    	150         	0           	Open  	;
 V-~@AV-35       	I-AV-35         	I-V-~@AV-35     	0.1         	53.55183    	150         	0           	Open  	;
 V-~@AV-36       	I-AV-36         	I-V-~@AV-36     	0.1         	53.55183    	150         	0           	Open  	;
 V-~@AV-37       	I-AV-37         	I-V-~@AV-37     	0.1         	53.55183    	150         	0           	Open  	;
 V-~@AV-38       	I-AV-38         	I-V-~@AV-38     	0.1         	53.55183    	150         	0           	Open  	;
 V-~@AV-39       	I-AV-39         	I-V-~@AV-39     	0.1         	53.55183    	150         	0           	Open  	;
 V-~@AV-4        	I-AV-4          	I-V-~@AV-4      	0.1         	53.55183    	150         	0           	Open  	;
 V-~@AV-40       	I-AV-40         	I-V-~@AV-40     	0.1         	53.55183    	150         	0           	Open  	;
 V-~@AV-41       	I-AV-41         	I-V-~@AV-41     	0.1         	53.55183    	150         	0           	Open  	;
 V-~@AV-42       	I-AV-42         	I-V-~@AV-42     	0.1         	53.55183    	150         	0           	Open  	;
 V-~@AV-43       	I-AV-43         	I-V-~@AV-43     	0.1         	53.55183    	150         	0           	Open  	;
 V-~@AV-44       	I-AV-44         	I-V-~@AV-44     	0.1         	53.55183    	150         	0           	Open  	;
 V-~@AV-45       	I-AV-45         	I-V-~@AV-45     	0.1         	53.55183    	150         	0           	Open  	;
 V-~@AV-46       	I-AV-46         	I-V-~@AV-46     	0.1         	53.55183    	150         	0           	Open  	;
 V-~@AV-47       	I-AV-47         	I-V-~@AV-47     	0.1         	53.55183    	150         	0           	Open  	;
 V-~@AV-48       	I-AV-48         	I-V-~@AV-48     	0.1         	53.55183    	150         	0           	Open  	;
 V-~@AV-49       	I-AV-49         	I-V-~@AV-49     	0.1         	53.55183    	150         	0           	Open  	;
 V-~@AV-5        	I-AV-5          	I-V-~@AV-5      	0.1         	53.55183    	150         	0           	Open  	;
 V-~@AV-50       	I-AV-50         	I-V-~@AV-50     	0.1         	53.55183    	150         	0           	Open  	;
 V-~@AV-51       	I-AV-51         	I-V-~@AV-51     	0.1         	53.55183    	150         	0           	Open  	;
 V-~@AV-52       	I-AV-52         	I-V-~@AV-52     	0.1         	53.55183    	150         	0           	Open  	;
 V-~@AV-53       	I-AV-53         	I-V-~@AV-53     	0.1         	53.55183    	150         	0           	Open  	;
 V-~@AV-54       	I-AV-54         	I-V-~@AV-54     	0.1         	53.55183    	150         	0           	Open  	;
 V-~@AV-55       	I-AV-55         	I-V-~@AV-55     	0.1         	53.55183    	150         	0           	Open  	;
 V-~@AV-56       	I-AV-56         	I-V-~@AV-56     	0.1         	53.55183    	150         	0           	Open  	;
 V-~@AV-57       	I-AV-57         	I-V-~@AV-57     	0.1         	53.55183    	150         	0           	Open  	;
 V-~@AV-58       	I-AV-58         	I-V-~@AV-58     	0.1         	53.55183    	150         	0           	Open  	;
 V-~@AV-59       	I-AV-59         	I-V-~@AV-59     	0.1         	53.55183    	150         	0           	Open  	;
 V-~@AV-6        	I-AV-6          	I-V-~@AV-6      	0.1         	53.55183    	150         	0           	Open  	;
 V-~@AV-60       	I-AV-60         	I-V-~@AV-60     	0.1         	53.55183    	150         	0           	Open  	;
 V-~@AV-61       	I-AV-61         	I-V-~@AV-61     	0.1         	53.55183    	150         	0           	Open  	;
 V-~@AV-62       	I-AV-62         	I-V-~@AV-62     	0.1         	53.55183    	150         	0           	Open  	;
 V-~@AV-63       	I-AV-63         	I-V-~@AV-63     	0.1         	53.55183    	150         	0           	Open  	;
 V-~@AV-64       	I-AV-64         	I-V-~@AV-64     	0.1         	53.55183    	150         	0           	Open  	;
 V-~@AV-65       	I-AV-65         	I-V-~@AV-65     	0.1         	53.55183    	150         	0           	Open  	;
 V-~@AV-66       	I-AV-66         	I-V-~@AV-66     	0.1         	53.55183    	150         	0           	Open  	;
 V-~@AV-67       	I-AV-67         	I-V-~@AV-67     	0.1         	53.55183    	150         	0           	Open  	;
 V-~@AV-68       	I-AV-68         	I-V-~@AV-68     	0.1         	53.55183    	150         	0           	Open  	;
 V-~@AV-69       	I-AV-69         	I-V-~@AV-69     	0.1         	53.55183    	150         	0           	Open  	;
 V-~@AV-7        	I-AV-7          	I-V-~@AV-7      	0.1         	53.55183    	150         	0           	Open  	;
 V-~@AV-70       	I-AV-70         	I-V-~@AV-70     	0.1         	53.55183    	150         	0           	Open  	;
 V-~@AV-71       	I-AV-71         	I-V-~@AV-71     	0.1         	53.55183    	150         	0           	Open  	;
 V-~@AV-72       	I-AV-72         	I-V-~@AV-72     	0.1         	53.55183    	150         	0           	Open  	;
 V-~@AV-73       	I-AV-73         	I-V-~@AV-73     	0.1         	53.55183    	150         	0           	Open  	;
 V-~@AV-74       	I-AV-74         	I-V-~@AV-74     	0.1         	53.55183    	150         	0           	Open  	;
 V-~@AV-75       	I-AV-75         	I-V-~@AV-75     	0.1         	53.55183    	150         	0           	Open  	;
 V-~@AV-76       	I-AV-76         	I-V-~@AV-76     	0.1         	53.55183    	150         	0           	Open  	;
 V-~@AV-77       	I-AV-77         	I-V-~@AV-77     	0.1         	53.55183    	150         	0           	Open  	;
 V-~@AV-78       	I-AV-78         	I-V-~@AV-78     	0.1         	53.55183    	150         	0           	Open  	;
 V-~@AV-79       	I-AV-79         	I-V-~@AV-79     	0.1         	53.55183    	150         	0           	Open  	;
 V-~@AV-8        	I-AV-8          	I-V-~@AV-8      	0.1         	53.55183    	150         	0           	Open  	;
 V-~@AV-80       	I-AV-80         	I-V-~@AV-80     	0.1         	53.55183    	150         	0           	Open  	;
 V-~@AV-81       	I-AV-81         	I-V-~@AV-81     	0.1         	53.55183    	150         	0           	Open  	;
 V-~@AV-82       	I-AV-82         	I-V-~@AV-82     	0.1         	53.55183    	150         	0           	Open  	;
 V-~@AV-83       	I-AV-83         	I-V-~@AV-83     	0.1         	53.55183    	150         	0           	Open  	;
 V-~@AV-84       	I-AV-84         	I-V-~@AV-84     	0.1         	53.55183    	150         	0           	Open  	;
 V-~@AV-85       	I-AV-85         	I-V-~@AV-85     	0.1         	53.55183    	150         	0           	Open  	;
 V-~@AV-86       	I-AV-86         	I-V-~@AV-86     	0.1         	53.55183    	150         	0           	Open  	;
 V-~@AV-87       	I-AV-87         	I-V-~@AV-87     	0.1         	53.55183    	150         	0           	Open  	;
 V-~@AV-88       	I-AV-88         	I-V-~@AV-88     	0.1         	53.55183    	150         	0           	Open  	;
 V-~@AV-89       	I-AV-89         	I-V-~@AV-89     	0.1         	53.55183    	150         	0           	Open  	;
 V-~@AV-9        	I-AV-9          	I-V-~@AV-9      	0.1         	53.55183    	150         	0           	Open  	;
 V-~@AV-90       	I-AV-90         	I-V-~@AV-90     	0.1         	53.55183    	150         	0           	Open  	;
 V-~@AV-91       	I-AV-91         	I-V-~@AV-91     	0.1         	53.55183    	150         	0           	Open  	;
 V-~@AV-92       	I-AV-92         	I-V-~@AV-92     	0.1         	53.55183    	150         	0           	Open  	;
 V-~@AV-93       	I-AV-93         	I-V-~@AV-93     	0.1         	53.55183    	150         	0           	Open  	;
 V-~@AV-94       	I-AV-94         	I-V-~@AV-94     	0.1         	53.55183    	150         	0           	Open  	;
 V-~@AV-95       	I-AV-95         	I-V-~@AV-95     	0.1         	53.55183    	150         	0           	Open  	;
 V-~@AV-96       	I-AV-96         	I-V-~@AV-96     	0.1         	53.55183    	150         	0           	Open  	;
 V-~@AV-97       	I-AV-97         	I-V-~@AV-97     	0.1         	53.55183    	150         	0           	Open  	;
 V-~@AV-98       	I-AV-98         	I-V-~@AV-98     	0.1         	53.55183    	150         	0           	Open  	;
 V-~@AV-99       	I-AV-99         	I-V-~@AV-99     	0.1         	53.55183    	150         	0           	Open  	;

[PUMPS]
;ID              	Node1           	Node2           	Parameters
 ~@P-~@1A        	I-P-~@1A        	O-P-~@1A        	POWER 36.6	SPEED 1	;
 ~@P-~@1B        	I-P-~@1B        	O-P-~@1B        	HEAD P2	SPEED 1	;
 ~@P-~@2B        	I-P-~@2B        	O-P-~@2B        	HEAD P3	SPEED 1	;
 ~@P-~@3B        	I-P-~@3B        	O-P-~@3B        	HEAD P4	SPEED 1	;
 ~@P-~@4A        	I-P-~@4A        	O-P-~@4A        	HEAD P5	SPEED 1	;
 ~@P-~@4B        	I-P-~@4B        	O-P-~@4B        	HEAD P6	SPEED 1	;
 ~@P-~@6B        	I-P-~@6B        	O-P-~@6B        	HEAD P7	SPEED 1	;
 ~@P-~@BIG_ELKa  	I-P-~@BIG_ELKa  	O-P-~@BIG_ELKa  	HEAD P8	SPEED 1	;
 ~@P-~@FASTLANE  	I-P-~@FASTLANE  	O-P-~@FASTLANE  	HEAD P9	SPEED 1	;
 ~@P-~@P292      	I-P-~@P292      	O-P-~@P292      	POWER 4.00	SPEED 1	;
 ~@P-~@WTP       	I-P-~@WTP       	O-P-~@WTP       	POWER 120	SPEED 1	;

[VALVES]
;ID              	Node1           	Node2           	Diameter    	Type	Setting     	MinorLoss   
 ~@V-~@AV-1      	I-V-~@AV-1      	O-V-~@AV-1      	1000        	TCV 	1.915758E+09	0           	;
 ~@V-~@AV-10     	I-V-~@AV-10     	O-V-~@AV-10     	1000        	TCV 	1.915758E+09	0           	;
 ~@V-~@AV-100    	I-V-~@AV-100    	O-V-~@AV-100    	1000        	TCV 	1.915758E+09	0           	;
 ~@V-~@AV-101    	I-V-~@AV-101    	O-V-~@AV-101    	1000        	TCV 	1.915758E+09	0           	;
 ~@V-~@AV-102    	I-V-~@AV-102    	O-V-~@AV-102    	1000        	TCV 	1.915758E+09	0           	;
 ~@V-~@AV-103    	I-V-~@AV-103    	O-V-~@AV-103    	1000        	TCV 	1.915758E+09	0           	;
 ~@V-~@AV-104    	I-V-~@AV-104    	O-V-~@AV-104    	1000        	TCV 	1.915758E+09	0           	;
 ~@V-~@AV-105    	I-V-~@AV-105    	O-V-~@AV-105    	1000        	TCV 	1.915758E+09	0           	;
 ~@V-~@AV-106    	I-V-~@AV-106    	O-V-~@AV-106    	1000        	TCV 	1.915758E+09	0           	;
 ~@V-~@AV-107    	I-V-~@AV-107    	O-V-~@AV-107    	1000        	TCV 	1.915758E+09	0           	;
 ~@V-~@AV-108    	I-V-~@AV-108    	O-V-~@AV-108    	1000        	TCV 	1.915758E+09	0           	;
 ~@V-~@AV-109    	I-V-~@AV-109    	O-V-~@AV-109    	1000        	TCV 	1.915758E+09	0           	;
 ~@V-~@AV-11     	I-V-~@AV-11     	O-V-~@AV-11     	1000        	TCV 	1.915758E+09	0           	;
 ~@V-~@AV-110    	I-V-~@AV-110    	O-V-~@AV-110    	1000        	TCV 	1.915758E+09	0           	;
 ~@V-~@AV-111    	I-V-~@AV-111    	O-V-~@AV-111    	1000        	TCV 	1.915758E+09	0           	;
 ~@V-~@AV-112    	I-V-~@AV-112    	O-V-~@AV-112    	1000        	TCV 	1.915758E+09	0           	;
 ~@V-~@AV-113    	I-V-~@AV-113    	O-V-~@AV-113    	1000        	TCV 	1.915758E+09	0           	;
 ~@V-~@AV-114    	I-V-~@AV-114    	O-V-~@AV-114    	1000        	TCV 	1.915758E+09	0           	;
 ~@V-~@AV-115    	I-V-~@AV-115    	O-V-~@AV-115    	1000        	TCV 	1.915758E+09	0           	;
 ~@V-~@AV-116    	I-V-~@AV-116    	O-V-~@AV-116    	1000        	TCV 	1.915758E+09	0           	;
 ~@V-~@AV-117    	I-V-~@AV-117    	O-V-~@AV-117    	1000        	TCV 	1.915758E+09	0           	;
 ~@V-~@AV-118    	I-V-~@AV-118    	O-V-~@AV-118    	1000        	TCV 	1.915758E+09	0           	;
 ~@V-~@AV-119    	I-V-~@AV-119    	O-V-~@AV-119    	1000        	TCV 	1.915758E+09	0           	;
 ~@V-~@AV-12     	I-V-~@AV-12     	O-V-~@AV-12     	1000        	TCV 	1.915758E+09	0           	;
 ~@V-~@AV-120    	I-V-~@AV-120    	O-V-~@AV-120    	1000        	TCV 	1.915758E+09	0           	;
 ~@V-~@AV-121    	I-V-~@AV-121    	O-V-~@AV-121    	1000        	TCV 	1.915758E+09	0           	;
 ~@V-~@AV-122    	I-V-~@AV-122    	O-V-~@AV-122    	1000        	TCV 	1.915758E+09	0           	;
 ~@V-~@AV-123    	I-V-~@AV-123    	O-V-~@AV-123    	1000        	TCV 	1.915758E+09	0           	;
 ~@V-~@AV-124    	I-V-~@AV-124    	O-V-~@AV-124    	1000        	TCV 	1.915758E+09	0           	;
 ~@V-~@AV-125    	I-V-~@AV-125    	O-V-~@AV-125    	1000        	TCV 	1.915758E+09	0           	;
 ~@V-~@AV-126    	I-V-~@AV-126    	O-V-~@AV-126    	1000        	TCV 	1.915758E+09	0           	;
 ~@V-~@AV-127    	I-V-~@AV-127    	O-V-~@AV-127    	1000        	TCV 	1.915758E+09	0           	;
 ~@V-~@AV-128    	I-V-~@AV-128    	O-V-~@AV-128    	1000        	TCV 	1.915758E+09	0           	;
 ~@V-~@AV-129    	I-V-~@AV-129    	O-V-~@AV-129    	1000        	TCV 	1.915758E+09	0           	;
 ~@V-~@AV-13     	I-V-~@AV-13     	O-V-~@AV-13     	1000        	TCV 	1.915758E+09	0           	;
 ~@V-~@AV-130    	I-V-~@AV-130    	O-V-~@AV-130    	1000        	TCV 	1.915758E+09	0           	;
 ~@V-~@AV-131    	I-V-~@AV-131    	O-V-~@AV-131    	1000        	TCV 	1.915758E+09	0           	;
 ~@V-~@AV-132    	I-V-~@AV-132    	O-V-~@AV-132    	1000        	TCV 	1.915758E+09	0           	;
 ~@V-~@AV-133    	I-V-~@AV-133    	O-V-~@AV-133    	1000        	TCV 	1.915758E+09	0           	;
 ~@V-~@AV-134    	I-V-~@AV-134    	O-V-~@AV-134    	1000        	TCV 	1.915758E+09	0           	;
 ~@V-~@AV-135    	I-V-~@AV-135    	O-V-~@AV-135    	1000        	TCV 	1.915758E+09	0           	;
 ~@V-~@AV-136    	I-V-~@AV-136    	O-V-~@AV-136    	1000        	TCV 	1.915758E+09	0           	;
 ~@V-~@AV-137    	I-V-~@AV-137    	O-V-~@AV-137    	1000        	TCV 	1.915758E+09	0           	;
 ~@V-~@AV-138    	I-V-~@AV-138    	O-V-~@AV-138    	1000        	TCV 	1.915758E+09	0           	;
 ~@V-~@AV-139    	I-V-~@AV-139    	O-V-~@AV-139    	1000        	TCV 	1.915758E+09	0           	;
 ~@V-~@AV-14     	I-V-~@AV-14     	O-V-~@AV-14     	1000        	TCV 	1.915758E+09	0           	;
 ~@V-~@AV-140    	I-V-~@AV-140    	O-V-~@AV-140    	1000        	TCV 	1.915758E+09	0           	;
 ~@V-~@AV-141    	I-V-~@AV-141    	O-V-~@AV-141    	1000        	TCV 	1.915758E+09	0           	;
 ~@V-~@AV-142    	I-V-~@AV-142    	O-V-~@AV-142    	1000        	TCV 	1.915758E+09	0           	;
 ~@V-~@AV-143    	I-V-~@AV-143    	O-V-~@AV-143    	1000        	TCV 	1.915758E+09	0           	;
 ~@V-~@AV-144    	I-V-~@AV-144    	O-V-~@AV-144    	1000        	TCV 	1.915758E+09	0           	;
 ~@V-~@AV-145    	I-V-~@AV-145    	O-V-~@AV-145    	1000        	TCV 	1.915758E+09	0           	;
 ~@V-~@AV-146    	I-V-~@AV-146    	O-V-~@AV-146    	1000        	TCV 	1.915758E+09	0           	;
 ~@V-~@AV-147    	I-V-~@AV-147    	O-V-~@AV-147    	1000        	TCV 	1.915758E+09	0           	;
 ~@V-~@AV-148    	I-V-~@AV-148    	O-V-~@AV-148    	1000        	TCV 	1.915758E+09	0           	;
 ~@V-~@AV-149    	I-V-~@AV-149    	O-V-~@AV-149    	1000        	TCV 	1.915758E+09	0           	;
 ~@V-~@AV-15     	I-V-~@AV-15     	O-V-~@AV-15     	1000        	TCV 	1.915758E+09	0           	;
 ~@V-~@AV-150    	I-V-~@AV-150    	O-V-~@AV-150    	1000        	TCV 	1.915758E+09	0           	;
 ~@V-~@AV-151    	I-V-~@AV-151    	O-V-~@AV-151    	1000        	TCV 	1.915758E+09	0           	;
 ~@V-~@AV-152    	I-V-~@AV-152    	O-V-~@AV-152    	1000        	TCV 	1.915758E+09	0           	;
 ~@V-~@AV-153    	I-V-~@AV-153    	O-V-~@AV-153    	1000        	TCV 	1.915758E+09	0           	;
 ~@V-~@AV-154    	I-V-~@AV-154    	O-V-~@AV-154    	1000        	TCV 	1.915758E+09	0           	;
 ~@V-~@AV-155    	I-V-~@AV-155    	O-V-~@AV-155    	1000        	TCV 	1.915758E+09	0           	;
 ~@V-~@AV-156    	I-V-~@AV-156    	O-V-~@AV-156    	1000        	TCV 	1.915758E+09	0           	;
 ~@V-~@AV-157    	I-V-~@AV-157    	O-V-~@AV-157    	1000        	TCV 	1.915758E+09	0           	;
 ~@V-~@AV-158    	I-V-~@AV-158    	O-V-~@AV-158    	1000        	TCV 	1.915758E+09	0           	;
 ~@V-~@AV-159    	I-V-~@AV-159    	O-V-~@AV-159    	1000        	TCV 	1.915758E+09	0           	;
 ~@V-~@AV-16     	I-V-~@AV-16     	O-V-~@AV-16     	1000        	TCV 	1.915758E+09	0           	;
 ~@V-~@AV-160    	I-V-~@AV-160    	O-V-~@AV-160    	1000        	TCV 	1.915758E+09	0           	;
 ~@V-~@AV-161    	I-V-~@AV-161    	O-V-~@AV-161    	1000        	TCV 	1.915758E+09	0           	;
 ~@V-~@AV-162    	I-V-~@AV-162    	O-V-~@AV-162    	1000        	TCV 	1.915758E+09	0           	;
 ~@V-~@AV-163    	I-V-~@AV-163    	O-V-~@AV-163    	1000        	TCV 	1.915758E+09	0           	;
 ~@V-~@AV-164    	I-V-~@AV-164    	O-V-~@AV-164    	1000        	TCV 	1.915758E+09	0           	;
 ~@V-~@AV-165    	I-V-~@AV-165    	O-V-~@AV-165    	1000        	TCV 	1.915758E+09	0           	;
 ~@V-~@AV-166    	I-V-~@AV-166    	O-V-~@AV-166    	1000        	TCV 	1.915758E+09	0           	;
 ~@V-~@AV-167    	I-V-~@AV-167    	O-V-~@AV-167    	1000        	TCV 	1.915758E+09	0           	;
 ~@V-~@AV-17     	I-V-~@AV-17     	O-V-~@AV-17     	1000        	TCV 	1.915758E+09	0           	;
 ~@V-~@AV-18     	I-V-~@AV-18     	O-V-~@AV-18     	1000        	TCV 	1.915758E+09	0           	;
 ~@V-~@AV-19     	I-V-~@AV-19     	O-V-~@AV-19     	1000        	TCV 	1.915758E+09	0           	;
 ~@V-~@AV-2      	I-V-~@AV-2      	O-V-~@AV-2      	1000        	TCV 	1.915758E+09	0           	;
 ~@V-~@AV-20     	I-V-~@AV-20     	O-V-~@AV-20     	1000        	TCV 	1.915758E+09	0           	;
 ~@V-~@AV-21     	I-V-~@AV-21     	O-V-~@AV-21     	1000        	TCV 	1.915758E+09	0           	;
 ~@V-~@AV-22     	I-V-~@AV-22     	O-V-~@AV-22     	1000        	TCV 	1.915758E+09	0           	;
 ~@V-~@AV-23     	I-V-~@AV-23     	O-V-~@AV-23     	1000        	TCV 	1.915758E+09	0           	;
 ~@V-~@AV-24     	I-V-~@AV-24     	O-V-~@AV-24     	1000        	TCV 	1.915758E+09	0           	;
 ~@V-~@AV-25     	I-V-~@AV-25     	O-V-~@AV-25     	1000        	TCV 	1.915758E+09	0           	;
 ~@V-~@AV-26     	I-V-~@AV-26     	O-V-~@AV-26     	1000        	TCV 	1.915758E+09	0           	;
 ~@V-~@AV-27     	I-V-~@AV-27     	O-V-~@AV-27     	1000        	TCV 	1.915758E+09	0           	;
 ~@V-~@AV-28     	I-V-~@AV-28     	O-V-~@AV-28     	1000        	TCV 	1.915758E+09	0           	;
 ~@V-~@AV-29     	I-V-~@AV-29     	O-V-~@AV-29     	1000        	TCV 	1.915758E+09	0           	;
 ~@V-~@AV-3      	I-V-~@AV-3      	O-V-~@AV-3      	1000        	TCV 	1.915758E+09	0           	;
 ~@V-~@AV-30     	I-V-~@AV-30     	O-V-~@AV-30     	1000        	TCV 	1.915758E+09	0           	;
 ~@V-~@AV-31     	I-V-~@AV-31     	O-V-~@AV-31     	1000        	TCV 	1.915758E+09	0           	;
 ~@V-~@AV-32     	I-V-~@AV-32     	O-V-~@AV-32     	1000        	TCV 	1.915758E+09	0           	;
 ~@V-~@AV-33     	I-V-~@AV-33     	O-V-~@AV-33     	1000        	TCV 	1.915758E+09	0           	;
 ~@V-~@AV-34     	I-V-~@AV-34     	O-V-~@AV-34     	1000        	TCV 	1.915758E+09	0           	;
 ~@V-~@AV-35     	I-V-~@AV-35     	O-V-~@AV-35     	1000        	TCV 	1.915758E+09	0           	;
 ~@V-~@AV-36     	I-V-~@AV-36     	O-V-~@AV-36     	1000        	TCV 	1.915758E+09	0           	;
 ~@V-~@AV-37     	I-V-~@AV-37     	O-V-~@AV-37     	1000        	TCV 	1.915758E+09	0           	;
 ~@V-~@AV-38     	I-V-~@AV-38     	O-V-~@AV-38     	1000        	TCV 	1.915758E+09	0           	;
 ~@V-~@AV-39     	I-V-~@AV-39     	O-V-~@AV-39     	1000        	TCV 	1.915758E+09	0           	;
 ~@V-~@AV-4      	I-V-~@AV-4      	O-V-~@AV-4      	1000        	TCV 	1.915758E+09	0           	;
 ~@V-~@AV-40     	I-V-~@AV-40     	O-V-~@AV-40     	1000        	TCV 	1.915758E+09	0           	;
 ~@V-~@AV-41     	I-V-~@AV-41     	O-V-~@AV-41     	1000        	TCV 	1.915758E+09	0           	;
 ~@V-~@AV-42     	I-V-~@AV-42     	O-V-~@AV-42     	1000        	TCV 	99999       	0           	;
 ~@V-~@AV-43     	I-V-~@AV-43     	O-V-~@AV-43     	1000        	TCV 	1.915758E+09	0           	;
 ~@V-~@AV-44     	I-V-~@AV-44     	O-V-~@AV-44     	1000        	TCV 	1.915758E+09	0           	;
 ~@V-~@AV-45     	I-V-~@AV-45     	O-V-~@AV-45     	1000        	TCV 	1.915758E+09	0           	;
 ~@V-~@AV-46     	I-V-~@AV-46     	O-V-~@AV-46     	1000        	TCV 	1.915758E+09	0           	;
 ~@V-~@AV-47     	I-V-~@AV-47     	O-V-~@AV-47     	1000        	TCV 	1.915758E+09	0           	;
 ~@V-~@AV-48     	I-V-~@AV-48     	O-V-~@AV-48     	1000        	TCV 	1.915758E+09	0           	;
 ~@V-~@AV-49     	I-V-~@AV-49     	O-V-~@AV-49     	1000        	TCV 	1.915758E+09	0           	;
 ~@V-~@AV-5      	I-V-~@AV-5      	O-V-~@AV-5      	1000        	TCV 	1.915758E+09	0           	;
 ~@V-~@AV-50     	I-V-~@AV-50     	O-V-~@AV-50     	1000        	TCV 	1.915758E+09	0           	;
 ~@V-~@AV-51     	I-V-~@AV-51     	O-V-~@AV-51     	1000        	TCV 	1.915758E+09	0           	;
 ~@V-~@AV-52     	I-V-~@AV-52     	O-V-~@AV-52     	1000        	TCV 	1.915758E+09	0           	;
 ~@V-~@AV-53     	I-V-~@AV-53     	O-V-~@AV-53     	1000        	TCV 	1.915758E+09	0           	;
 ~@V-~@AV-54     	I-V-~@AV-54     	O-V-~@AV-54     	1000        	TCV 	1.915758E+09	0           	;
 ~@V-~@AV-55     	I-V-~@AV-55     	O-V-~@AV-55     	1000        	TCV 	1.915758E+09	0           	;
 ~@V-~@AV-56     	I-V-~@AV-56     	O-V-~@AV-56     	1000        	TCV 	1.915758E+09	0           	;
 ~@V-~@AV-57     	I-V-~@AV-57     	O-V-~@AV-57     	1000        	TCV 	1.915758E+09	0           	;
 ~@V-~@AV-58     	I-V-~@AV-58     	O-V-~@AV-58     	1000        	TCV 	1.915758E+09	0           	;
 ~@V-~@AV-59     	I-V-~@AV-59     	O-V-~@AV-59     	1000        	TCV 	1.915758E+09	0           	;
 ~@V-~@AV-6      	I-V-~@AV-6      	O-V-~@AV-6      	1000        	TCV 	1.915758E+09	0           	;
 ~@V-~@AV-60     	I-V-~@AV-60     	O-V-~@AV-60     	1000        	TCV 	1.915758E+09	0           	;
 ~@V-~@AV-61     	I-V-~@AV-61     	O-V-~@AV-61     	1000        	TCV 	1.915758E+09	0           	;
 ~@V-~@AV-62     	I-V-~@AV-62     	O-V-~@AV-62     	1000        	TCV 	1.915758E+09	0           	;
 ~@V-~@AV-63     	I-V-~@AV-63     	O-V-~@AV-63     	1000        	TCV 	1.915758E+09	0           	;
 ~@V-~@AV-64     	I-V-~@AV-64     	O-V-~@AV-64     	1000        	TCV 	1.915758E+09	0           	;
 ~@V-~@AV-65     	I-V-~@AV-65     	O-V-~@AV-65     	1000        	TCV 	1.915758E+09	0           	;
 ~@V-~@AV-66     	I-V-~@AV-66     	O-V-~@AV-66     	1000        	TCV 	1.915758E+09	0           	;
 ~@V-~@AV-67     	I-V-~@AV-67     	O-V-~@AV-67     	1000        	TCV 	1.915758E+09	0           	;
 ~@V-~@AV-68     	I-V-~@AV-68     	O-V-~@AV-68     	1000        	TCV 	1.915758E+09	0           	;
 ~@V-~@AV-69     	I-V-~@AV-69     	O-V-~@AV-69     	1000        	TCV 	1.915758E+09	0           	;
 ~@V-~@AV-7      	I-V-~@AV-7      	O-V-~@AV-7      	1000        	TCV 	1.915758E+09	0           	;
 ~@V-~@AV-70     	I-V-~@AV-70     	O-V-~@AV-70     	1000        	TCV 	1.915758E+09	0           	;
 ~@V-~@AV-71     	I-V-~@AV-71     	O-V-~@AV-71     	1000        	TCV 	1.915758E+09	0           	;
 ~@V-~@AV-72     	I-V-~@AV-72     	O-V-~@AV-72     	1000        	TCV 	1.915758E+09	0           	;
 ~@V-~@AV-73     	I-V-~@AV-73     	O-V-~@AV-73     	1000        	TCV 	1.915758E+09	0           	;
 ~@V-~@AV-74     	I-V-~@AV-74     	O-V-~@AV-74     	1000        	TCV 	1.915758E+09	0           	;
 ~@V-~@AV-75     	I-V-~@AV-75     	O-V-~@AV-75     	1000        	TCV 	1.915758E+09	0           	;
 ~@V-~@AV-76     	I-V-~@AV-76     	O-V-~@AV-76     	1000        	TCV 	1.915758E+09	0           	;
 ~@V-~@AV-77     	I-V-~@AV-77     	O-V-~@AV-77     	1000        	TCV 	1.915758E+09	0           	;
 ~@V-~@AV-78     	I-V-~@AV-78     	O-V-~@AV-78     	1000        	TCV 	1.915758E+09	0           	;
 ~@V-~@AV-79     	I-V-~@AV-79     	O-V-~@AV-79     	1000        	TCV 	1.915758E+09	0           	;
 ~@V-~@AV-8      	I-V-~@AV-8      	O-V-~@AV-8      	1000        	TCV 	1.915758E+09	0           	;
 ~@V-~@AV-80     	I-V-~@AV-80     	O-V-~@AV-80     	1000        	TCV 	1.915758E+09	0           	;
 ~@V-~@AV-81     	I-V-~@AV-81     	O-V-~@AV-81     	1000        	TCV 	1.915758E+09	0           	;
 ~@V-~@AV-82     	I-V-~@AV-82     	O-V-~@AV-82     	1000        	TCV 	1.915758E+09	0           	;
 ~@V-~@AV-83     	I-V-~@AV-83     	O-V-~@AV-83     	1000        	TCV 	1.915758E+09	0           	;
 ~@V-~@AV-84     	I-V-~@AV-84     	O-V-~@AV-84     	1000        	TCV 	1.915758E+09	0           	;
 ~@V-~@AV-85     	I-V-~@AV-85     	O-V-~@AV-85     	1000        	TCV 	1.915758E+09	0           	;
 ~@V-~@AV-86     	I-V-~@AV-86     	O-V-~@AV-86     	1000        	TCV 	1.915758E+09	0           	;
 ~@V-~@AV-87     	I-V-~@AV-87     	O-V-~@AV-87     	1000        	TCV 	1.915758E+09	0           	;
 ~@V-~@AV-88     	I-V-~@AV-88     	O-V-~@AV-88     	1000        	TCV 	1.915758E+09	0           	;
 ~@V-~@AV-89     	I-V-~@AV-89     	O-V-~@AV-89     	1000        	TCV 	1.915758E+09	0           	;
 ~@V-~@AV-9      	I-V-~@AV-9      	O-V-~@AV-9      	1000        	TCV 	1.915758E+09	0           	;
 ~@V-~@AV-90     	I-V-~@AV-90     	O-V-~@AV-90     	1000        	TCV 	1.915758E+09	0           	;
 ~@V-~@AV-91     	I-V-~@AV-91     	O-V-~@AV-91     	1000        	TCV 	1.915758E+09	0           	;
 ~@V-~@AV-92     	I-V-~@AV-92     	O-V-~@AV-92     	1000        	TCV 	1.915758E+09	0           	;
 ~@V-~@AV-93     	I-V-~@AV-93     	O-V-~@AV-93     	1000        	TCV 	99999       	0           	;
 ~@V-~@AV-94     	I-V-~@AV-94     	O-V-~@AV-94     	1000        	TCV 	1.915758E+09	0           	;
 ~@V-~@AV-95     	I-V-~@AV-95     	O-V-~@AV-95     	1000        	TCV 	1.915758E+09	0           	;
 ~@V-~@AV-96     	I-V-~@AV-96     	O-V-~@AV-96     	1000        	TCV 	1.915758E+09	0           	;
 ~@V-~@AV-97     	I-V-~@AV-97     	O-V-~@AV-97     	1000        	TCV 	1.915758E+09	0           	;
 ~@V-~@AV-98     	I-V-~@AV-98     	O-V-~@AV-98     	1000        	TCV 	1.915758E+09	0           	;
 ~@V-~@AV-99     	I-V-~@AV-99     	O-V-~@AV-99     	1000        	TCV 	1.915758E+09	0           	;

[TAGS]

[DEMANDS]
;Junction        	Demand      	Pattern         	Category

[STATUS]
;ID              	Status/Setting
 ~@V-~@AV-42     	Closed
 ~@V-~@AV-93     	Closed

[PATTERNS]
;ID              	Multipliers
;
 1               	1           	0.25        	0.209       	0.209       	0.259       	0.36        
 1               	0.528       	0.91        	1.2         	1.299       	1.34        	1.34        
 1               	1.32        	1.269       	1.25        	1.25        	1.279       	1.37        
 1               	1.519       	1.7         	1.75        	1.669       	0.898       	0.479       
;
 2               	1           	0.25        	0.209       	0.209       	0.259       	0.36        
 2               	0.528       	0.91        	1.2         	1.299       	1.34        	1.34        
 2               	1.32        	1.269       	1.25        	1.25        	1.279       	1.37        
 2               	1.519       	1.7         	1.75        	1.669       	0.898       	0.479       
;
 11              	1           
;
 ENRG1           	1           	1           	1           	1           	1           	1           
 ENRG1           	1           	1           	1           	1           	1           	1           
 ENRG1           	1           	1           	1           	1           	1           	1           
 ENRG1           	1           	1           

[CURVES]
;ID              	X-Value     	Y-Value
;PUMP: -------------------------------------------------------------------------------
 P1              	0           	332.307     
 P1              	500         	276.923     
 P1              	750         	180         
;PUMP: 
 P2              	0           	415.384     
 P2              	670         	346.153     
 P2              	1005        	225         
;PUMP: 
 P3              	0           	415.384     
 P3              	375         	346.153     
 P3              	562.5       	225         
;PUMP: 
 P4              	0           	193.846     
 P4              	90          	161.538     
 P4              	135         	105         
;PUMP: 
 P5              	0           	138.461     
 P5              	130         	115.384     
 P5              	195         	75          
;PUMP: 
 P6              	0           	304.615     
 P6              	245         	253.846     
 P6              	367.5       	165         
;PUMP: 
 P7              	0           	193.846     
 P7              	130         	161.538     
 P7              	195         	105         
;PUMP: 
 P8              	0           	332.307     
 P8              	240         	276.923     
 P8              	360         	180         
;PUMP: 
 P9              	0           	692.307     
 P9              	350         	576.923     
 P9              	525         	375         
;PUMP: 
 P10             	0           	138.461     
 P10             	130         	115.384     
 P10             	195         	75          
;PUMP: 
 P11             	0           	415.384     
 P11             	1400        	346.153     
 P11             	2100        	225         
;PUMP: 
 PE1             	0           	0           
 PE1             	500         	0           
 PE1             	750         	0           
;PUMP: 
 PE2             	0           	0           
 PE2             	670         	0           
 PE2             	1005        	0           
;PUMP: 
 PE3             	0           	0           
 PE3             	375         	0           
 PE3             	562.5       	0           
;PUMP: 
 PE4             	0           	0           
 PE4             	90          	0           
 PE4             	135         	0           
;PUMP: 
 PE5             	0           	0           
 PE5             	130         	0           
 PE5             	195         	0           
;PUMP: 
 PE6             	0           	0           
 PE6             	245         	0           
 PE6             	367.5       	0           
;PUMP: 
 PE7             	0           	0           
 PE7             	130         	0           
 PE7             	195         	0           
;PUMP: 
 PE8             	0           	0           
 PE8             	240         	0           
 PE8             	360         	0           
;PUMP: 
 PE9             	0           	0           
 PE9             	350         	0           
 PE9             	525         	0           
;PUMP: 
 PE10            	0           	0           
 PE10            	130         	0           
 PE10            	195         	0           
;PUMP: 
 PE11            	0           	0           
 PE11            	1400        	0           
 PE11            	2100        	0           

[CONTROLS]

[RULES]

[ENERGY]
 Global Efficiency  	75
 Global Price       	0
 Demand Charge      	0

[EMITTERS]
;Junction        	Coefficient

[QUALITY]
;Node            	InitQual

[SOURCES]
;Node            	Type        	Quality     	Pattern

[REACTIONS]
;Type     	Pipe/Tank       	Coefficient


[REACTIONS]
 Order Bulk            	0
 Order Tank            	0
 Order Wall            	0
 Global Bulk           	0
 Global Wall           	0
 Limiting Potential    	0
 Roughness Correlation 	0

[MIXING]
;Tank            	Model

[TIMES]
 Duration           	0
 Hydraulic Timestep 	1:00
 Quality Timestep   	0:05
 Pattern Timestep   	1:00
 Pattern Start      	0:00
 Report Timestep    	1:00
 Report Start       	0:00
 Start ClockTime    	12 am
 Statistic          	None

[REPORT]
 Status             	Full
 Summary            	No
 Page               	0

[OPTIONS]
 Units              	GPM
 Headloss           	H-W
 Specific Gravity   	1
 Viscosity          	1
 Trials             	50
 Accuracy           	0.0001
 CHECKFREQ          	2
 MAXCHECK           	10
 DAMPLIMIT          	0
 Unbalanced         	Continue 10
 Pattern            	1
 Demand Multiplier  	1.0
 Emitter Exponent   	0.5
 Quality            	AGE mg/L
 Diffusivity        	0.05
 Tolerance          	0.01

[COORDINATES]
;Node            	X-Coord           	Y-Coord
I-1A            	5858186.980       	3849789.000       
I-1B            	5853722.500       	3851121.000       
I-2B            	5843958.090       	3856660.000       
I-3B            	5833830.870       	3861530.000       
I-4A            	5895885.470       	3833090.000       
I-4B            	5848278.320       	3848187.000       
I-6B            	5849048.440       	3878852.000       
I-AV-1          	5849719.930       	3889048.000       
I-AV-10         	5880325.090       	3846735.000       
I-AV-100        	5889422.100       	3841494.000       
I-AV-101        	5887523.370       	3840283.000       
I-AV-102        	5887138.890       	3840321.000       
I-AV-103        	5885326.940       	3839376.000       
I-AV-104        	5885748.490       	3838089.000       
I-AV-105        	5884625.160       	3837319.000       
I-AV-106        	5883940.280       	3836387.000       
I-AV-107        	5849412.890       	3880752.000       
I-AV-108        	5882001.150       	3836037.000       
I-AV-109        	5843628.880       	3865840.000       
I-AV-11         	5877996.380       	3845444.000       
I-AV-110        	5882599.290       	3834018.000       
I-AV-111        	5884217.550       	3831437.000       
I-AV-112        	5883975.020       	3831373.000       
I-AV-113        	5884557.060       	3831002.000       
I-AV-114        	5881842.300       	3830998.000       
I-AV-115        	5881447.830       	3829310.000       
I-AV-116        	5881276.930       	3829061.000       
I-AV-117        	5878636.990       	3827592.000       
I-AV-118        	5877514.110       	3826287.000       
I-AV-119        	5877741.110       	3825549.000       
I-AV-12         	5878699.540       	3846377.000       
I-AV-120        	5843025.310       	3865765.000       
I-AV-121        	5875334.120       	3826808.000       
I-AV-122        	5875237.920       	3826789.000       
I-AV-123        	5870233.190       	3837287.000       
I-AV-124        	5870766.970       	3834601.000       
I-AV-125        	5870552.980       	3832176.000       
I-AV-126        	5874704.240       	3831349.000       
I-AV-127        	5870441.060       	3821867.000       
I-AV-128        	5894026.600       	3830136.000       
I-AV-129        	5894587.290       	3830478.000       
I-AV-13         	5836257.070       	3826649.000       
I-AV-130        	5896269.820       	3833903.000       
I-AV-131        	5845784.420       	3864368.000       
I-AV-132        	5896657.300       	3833127.000       
I-AV-133        	5896965.060       	3833017.000       
I-AV-134        	5894647.960       	3830458.000       
I-AV-135        	5905251.280       	3827600.000       
I-AV-136        	5908054.030       	3823944.000       
I-AV-137        	5846096.750       	3874577.000       
I-AV-138        	5845769.110       	3874355.000       
I-AV-139        	5836993.410       	3872735.000       
I-AV-14         	5877341.040       	3848314.000       
I-AV-140        	5862840.070       	3871609.000       
I-AV-141        	5845125.490       	3864840.000       
I-AV-142        	5861775.110       	3869918.000       
I-AV-143        	5863541.860       	3867328.000       
I-AV-144        	5852838.400       	3885522.000       
I-AV-145        	5868464.560       	3867413.000       
I-AV-146        	5866496.770       	3871721.000       
I-AV-147        	5870498.360       	3872959.000       
I-AV-148        	5869435.200       	3869250.000       
I-AV-149        	5869410.340       	3870124.000       
I-AV-15         	5873158.380       	3847214.000       
I-AV-150        	5870897.820       	3863252.000       
I-AV-151        	5845392.040       	3864538.000       
I-AV-152        	5858023.710       	3862353.000       
I-AV-153        	5859186.130       	3862324.000       
I-AV-154        	5848522.140       	3885267.000       
I-AV-155        	5860594.590       	3863471.000       
I-AV-156        	5855678.150       	3857897.000       
I-AV-157        	5868819.110       	3858761.000       
I-AV-158        	5845828.040       	3871087.000       
I-AV-159        	5854793.060       	3857310.000       
I-AV-16         	5870946.490       	3850051.000       
I-AV-160        	5875889.980       	3868916.000       
I-AV-161        	5875113.310       	3869228.000       
I-AV-162        	5881590.760       	3862716.000       
I-AV-163        	5846822.260       	3885256.000       
I-AV-164        	5886299.000       	3856530.000       
I-AV-165        	5884210.030       	3851852.000       
I-AV-166        	5884299.580       	3851141.000       
I-AV-167        	5883566.660       	3848675.000       
I-AV-17         	5854372.670       	3851882.000       
I-AV-18         	5854760.686       	3851222.000       
I-AV-19         	5854901.500       	3849768.000       
I-AV-2          	5845467.930       	3870999.000       
I-AV-20         	5854855.850       	3849834.000       
I-AV-21         	5848456.500       	3883354.000       
I-AV-22         	5855196.870       	3849268.000       
I-AV-23         	5854637.190       	3849170.000       
I-AV-24         	5845707.960       	3841685.000       
I-AV-25         	5855200.030       	3849290.000       
I-AV-26         	5855312.390       	3847446.000       
I-AV-27         	5855336.620       	3847577.000       
I-AV-28         	5855349.890       	3847647.000       
I-AV-29         	5856795.580       	3845216.000       
I-AV-3          	5884558.850       	3848338.000       
I-AV-30         	5856774.470       	3845224.000       
I-AV-31         	5852244.240       	3855379.000       
I-AV-32         	5850996.200       	3855682.000       
I-AV-33         	5855944.130       	3883557.000       
I-AV-34         	5849881.700       	3855128.000       
I-AV-35         	5845922.770       	3841821.000       
I-AV-36         	5849774.120       	3855093.000       
I-AV-37         	5849372.730       	3854997.000       
I-AV-38         	5851948.320       	3853930.000       
I-AV-39         	5848751.150       	3854669.000       
I-AV-4          	5883973.440       	3847460.000       
I-AV-40         	5849077.620       	3854926.000       
I-AV-41         	5848599.940       	3855397.000       
I-AV-42         	5847676.590       	3856283.000       
I-AV-43         	5848225.240       	3855628.000       
I-AV-44         	5848677.800       	3854514.000       
I-AV-45         	5856701.200       	3882753.000       
I-AV-46         	5845647.870       	3840699.000       
I-AV-47         	5852471.750       	3853119.000       
I-AV-48         	5847507.450       	3850396.000       
I-AV-49         	5847160.940       	3849497.000       
I-AV-5          	5884057.060       	3847500.000       
I-AV-50         	5849171.280       	3848723.000       
I-AV-51         	5848794.200       	3847591.000       
I-AV-52         	5848245.350       	3846975.000       
I-AV-53         	5848125.180       	3847175.000       
I-AV-54         	5860853.250       	3847544.000       
I-AV-55         	5861899.350       	3846722.000       
I-AV-56         	5840131.400       	3857091.000       
I-AV-57         	5842404.720       	3840413.000       
I-AV-58         	5864603.840       	3843335.000       
I-AV-59         	5866941.920       	3843769.000       
I-AV-6          	5886093.190       	3847621.000       
I-AV-60         	5871614.220       	3843199.000       
I-AV-61         	5872293.680       	3842794.000       
I-AV-62         	5859907.880       	3840014.000       
I-AV-63         	5858041.370       	3844313.000       
I-AV-64         	5846510.860       	3843047.000       
I-AV-65         	5846666.830       	3843185.000       
I-AV-66         	5857116.180       	3881057.000       
I-AV-67         	5838259.670       	3858709.000       
I-AV-68         	5842496.920       	3839740.000       
I-AV-69         	5835847.010       	3861079.000       
I-AV-7          	5886097.970       	3847551.000       
I-AV-70         	5836255.010       	3860899.000       
I-AV-71         	5834703.810       	3859274.000       
I-AV-72         	5832657.730       	3855450.000       
I-AV-73         	5832769.570       	3853795.000       
I-AV-74         	5836510.320       	3866080.000       
I-AV-75         	5836446.730       	3870915.000       
I-AV-76         	5840800.700       	3863954.000       
I-AV-77         	5843771.070       	3865961.000       
I-AV-78         	5883641.280       	3823251.000       
I-AV-79         	5842426.670       	3839738.000       
I-AV-8          	5886779.910       	3845359.000       
I-AV-80         	5863536.100       	3816550.000       
I-AV-81         	5864240.450       	3805871.000       
I-AV-82         	5830676.800       	3843920.000       
I-AV-83         	5818518.300       	3850300.000       
I-AV-84         	5821261.540       	3851309.000       
I-AV-85         	5915777.960       	3820089.000       
I-AV-86         	5842189.860       	3838426.000       
I-AV-87         	5841736.190       	3836448.000       
I-AV-88         	5857529.530       	3880558.000       
I-AV-89         	5842337.070       	3834450.000       
I-AV-9          	5849509.150       	3888690.000       
I-AV-90         	5842319.850       	3834510.000       
I-AV-91         	5840498.070       	3832761.000       
I-AV-92         	5840254.060       	3829120.000       
I-AV-93         	5839937.200       	3829183.000       
I-AV-94         	5840375.010       	3828915.000       
I-AV-95         	5882089.170       	3836074.000       
I-AV-96         	5832762.380       	3825724.000       
I-AV-97         	5859171.930       	3836195.000       
I-AV-98         	5843905.320       	3865925.000       
I-AV-99         	5889361.190       	3842479.000       
I-BIG_ELKa      	5876113.270       	3852251.000       
I-FASTLANE      	5839056.790       	3828811.000       
I-P292          	5863813.630       	3872933.000       
I-WTP           	5853555.700       	3857418.000       
J-1             	5881956.930       	3836567.000       
J-10            	5841134.970       	3865824.000       
J-100           	5844433.010       	3841492.000       
J-101           	5856815.350       	3844283.000       
J-102           	5856963.350       	3844910.000       
J-103           	5869396.530       	3834577.000       
J-104           	5869381.720       	3834599.000       
J-105           	5830342.090       	3849748.000       
J-106           	5831193.900       	3852542.000       
J-107           	5830597.240       	3859316.000       
J-108           	5830242.330       	3858764.000       
J-109           	5824753.760       	3854713.000       
J-11            	5842573.160       	3865953.000       
J-110           	5825458.990       	3853425.000       
J-111           	5853409.530       	3849139.000       
J-112           	5852753.420       	3849105.000       
J-113           	5832951.850       	3859094.000       
J-114           	5832232.580       	3858536.000       
J-115           	5851288.140       	3853072.000       
J-116           	5850790.510       	3851979.000       
J-117           	5876929.270       	3846685.000       
J-118           	5876761.030       	3846380.000       
J-119           	5859346.570       	3863417.000       
J-12            	5841658.220       	3865721.000       
J-120           	5846389.550       	3850432.000       
J-121           	5845507.820       	3850429.000       
J-122           	5853729.540       	3849702.000       
J-123           	5853279.720       	3850403.000       
J-124           	5831696.880       	3853592.000       
J-125           	5833320.980       	3852939.000       
J-126           	5829864.830       	3847273.000       
J-127           	5829873.450       	3848724.000       
J-128           	5859349.070       	3847697.000       
J-129           	5858845.640       	3847091.000       
J-13            	5853677.250       	3884893.000       
J-130           	5858382.300       	3849778.000       
J-131           	5854218.230       	3858070.000       
J-132           	5854005.050       	3849198.000       
J-133           	5853290.330       	3850411.000       
J-134           	5824933.120       	3851730.000       
J-135           	5824275.980       	3849455.000       
J-136           	5868956.570       	3837050.000       
J-137           	5871457.090       	3836466.000       
J-138           	5871898.740       	3842402.000       
J-139           	5847606.370       	3852279.000       
J-14            	5852501.510       	3884136.000       
J-140           	5847963.160       	3851718.000       
J-141           	5853524.490       	3857266.000       
J-142           	5876800.650       	3850713.000       
J-143           	5831413.840       	3825662.000       
J-144           	5851841.700       	3856003.000       
J-145           	5846205.510       	3849879.000       
J-146           	5846669.750       	3849994.000       
J-147           	5837500.840       	3829599.000       
J-148           	5858813.160       	3863102.000       
J-149           	5854231.920       	3858068.000       
J-15            	5843534.890       	3864661.000       
J-150           	5849262.980       	3889189.000       
J-151           	5866757.240       	3847527.000       
J-152           	5876249.510       	3848307.000       
J-153           	5873715.720       	3847723.000       
J-154           	5862407.770       	3873120.000       
J-155           	5863524.360       	3872978.000       
J-156           	5876939.220       	3842418.000       
J-157           	5874863.620       	3828839.000       
J-158           	5874278.930       	3828885.000       
J-159           	5860596.300       	3869907.000       
J-16            	5852734.330       	3857959.000       
J-160           	5829797.670       	3846314.000       
J-161           	5845490.150       	3843279.000       
J-162           	5846999.890       	3847092.000       
J-163           	5858532.950       	3836986.000       
J-164           	5858747.730       	3837077.000       
J-165           	5854125.260       	3847500.000       
J-166           	5854082.580       	3847407.000       
J-167           	5820813.290       	3846753.000       
J-168           	5855580.860       	3845254.000       
J-169           	5840924.150       	3838368.000       
J-17            	5853376.380       	3856901.000       
J-170           	5861434.490       	3871822.000       
J-171           	5860623.810       	3872203.000       
J-172           	5854135.310       	3847500.000       
J-173           	5834807.830       	3866190.000       
J-174           	5832011.990       	3865329.000       
J-175           	5853732.640       	3859541.000       
J-176           	5853782.080       	3851565.000       
J-177           	5843785.230       	3856504.000       
J-178           	5847292.050       	3855463.000       
J-179           	5837819.070       	3873455.000       
J-18            	5856142.990       	3853214.000       
J-180           	5837365.710       	3873274.000       
J-181           	5860893.720       	3870407.000       
J-182           	5860582.350       	3869911.000       
J-183           	5834502.870       	3873785.000       
J-184           	5833729.880       	3877569.000       
J-185           	5859933.210       	3869858.000       
J-186           	5851662.840       	3885516.000       
J-187           	5851601.680       	3884239.000       
J-188           	5880130.410       	3829224.000       
J-189           	5848604.730       	3855110.000       
J-19            	5856250.170       	3852978.000       
J-190           	5848674.100       	3854801.000       
J-191           	5853684.830       	3846487.000       
J-192           	5850782.820       	3843090.000       
J-193           	5882851.340       	3847556.000       
J-194           	5853460.480       	3849483.000       
J-195           	5853101.490       	3849991.000       
J-196           	5860722.240       	3808185.000       
J-197           	5861289.000       	3797143.000       
J-198           	5854027.200       	3846991.000       
J-199           	5863492.650       	3843309.000       
J-2             	5881965.000       	3836880.000       
J-20            	5844082.480       	3865817.000       
J-200           	5861582.750       	3844930.000       
J-201           	5882592.450       	3847092.000       
J-202           	5882256.870       	3846414.000       
J-203           	5867774.960       	3842940.000       
J-204           	5866669.220       	3843780.000       
J-205           	5858287.400       	3838811.000       
J-206           	5857830.980       	3838641.000       
J-207           	5855571.650       	3845258.000       
J-208           	5855560.500       	3845223.000       
J-209           	5854161.370       	3841366.000       
J-21            	5876259.500       	3853286.000       
J-210           	5839331.370       	3874382.000       
J-211           	5839027.690       	3874849.000       
J-212           	5845603.280       	3885158.000       
J-213           	5838970.480       	3882866.000       
J-214           	5839141.020       	3825928.000       
J-215           	5899236.220       	3824637.000       
J-216           	5895722.370       	3832948.000       
J-217           	5852586.570       	3825010.000       
J-218           	5858504.790       	3837102.000       
J-219           	5859773.070       	3876154.000       
J-22            	5876535.730       	3853267.000       
J-220           	5847260.410       	3871621.000       
J-221           	5845454.890       	3873474.000       
J-222           	5863685.520       	3819233.000       
J-223           	5884223.480       	3821028.000       
J-224           	5861217.600       	3845554.000       
J-225           	5814466.120       	3848585.000       
J-226           	5814655.840       	3847895.000       
J-227           	5846203.820       	3849882.000       
J-228           	5853386.430       	3856903.000       
J-229           	5854262.270       	3849027.000       
J-23            	5854807.812       	3851459.000       
J-230           	5855599.230       	3848677.000       
J-231           	5831208.420       	3852564.000       
J-232           	5843963.030       	3857666.000       
J-233           	5852012.720       	3852988.000       
J-234           	5852344.120       	3852370.000       
J-235           	5903997.620       	3826319.000       
J-236           	5857468.200       	3879649.000       
J-237           	5883343.570       	3830954.000       
J-238           	5878279.840       	3805984.000       
J-239           	5880208.540       	3805469.000       
J-24            	5842227.580       	3866216.000       
J-240           	5877246.890       	3846297.000       
J-241           	5876950.750       	3846078.000       
J-242           	5862904.080       	3819087.000       
J-243           	5862115.330       	3819078.000       
J-244           	5876635.380       	3847059.000       
J-245           	5869947.800       	3862866.000       
J-246           	5847098.530       	3876169.000       
J-247           	5848322.060       	3879285.000       
J-248           	5848174.030       	3888710.000       
J-249           	5847719.370       	3887692.000       
J-25            	5841552.010       	3865972.000       
J-250           	5845396.100       	3876459.000       
J-251           	5845375.900       	3876761.000       
J-252           	5883508.810       	3839382.000       
J-253           	5881554.770       	3841048.000       
J-254           	5839908.440       	3871815.000       
J-255           	5840219.460       	3871148.000       
J-256           	5840508.870       	3872130.000       
J-257           	5841451.370       	3865616.000       
J-258           	5838665.800       	3864247.000       
J-259           	5841063.090       	3866742.000       
J-26            	5845211.280       	3861198.000       
J-260           	5841495.720       	3865070.000       
J-261           	5858444.980       	3849076.000       
J-262           	5814658.630       	3847882.000       
J-263           	5814371.090       	3847119.000       
J-264           	5884742.810       	3847877.000       
J-265           	5883965.530       	3847842.000       
J-266           	5877875.840       	3831054.000       
J-267           	5831378.630       	3855501.000       
J-268           	5833401.320       	3859211.000       
J-269           	5830748.050       	3852457.000       
J-27            	5858500.570       	3837306.000       
J-270           	5867095.690       	3845409.000       
J-271           	5851633.980       	3855982.000       
J-272           	5851529.300       	3856590.000       
J-273           	5843020.830       	3869454.000       
J-274           	5832059.170       	3851134.000       
J-275           	5859143.610       	3837092.000       
J-276           	5878345.550       	3841148.000       
J-277           	5874316.010       	3841321.000       
J-278           	5873413.480       	3840328.000       
J-279           	5848177.650       	3888730.000       
J-28            	5833762.140       	3861455.000       
J-280           	5839471.180       	3871833.000       
J-281           	5851805.300       	3856245.000       
J-282           	5858450.550       	3837277.000       
J-283           	5824309.770       	3849431.000       
J-284           	5829565.690       	3848231.000       
J-285           	5828882.540       	3848117.000       
J-286           	5844699.620       	3840895.000       
J-287           	5843427.110       	3839974.000       
J-288           	5860898.740       	3870398.000       
J-289           	5876943.400       	3842422.000       
J-29            	5873725.570       	3847478.000       
J-290           	5846849.130       	3882988.000       
J-291           	5846450.760       	3882184.000       
J-292           	5844864.180       	3874630.000       
J-293           	5848216.130       	3855002.000       
J-294           	5893122.730       	3830305.000       
J-295           	5848275.710       	3854733.000       
J-296           	5858599.840       	3884129.000       
J-297           	5844483.470       	3871063.000       
J-298           	5880535.000       	3863136.000       
J-299           	5878764.590       	3861833.000       
J-3             	5816914.390       	3812006.000       
J-30            	5862397.720       	3873123.000       
J-300           	5842289.350       	3831272.000       
J-301           	5840696.020       	3838421.000       
J-302           	5867240.100       	3867451.000       
J-303           	5876492.200       	3853593.000       
J-304           	5853532.840       	3857259.000       
J-305           	5863393.940       	3841677.000       
J-306           	5884357.280       	3839468.000       
J-307           	5835367.970       	3866061.000       
J-308           	5836118.740       	3864701.000       
J-309           	5883271.210       	3848351.000       
J-31            	5856717.020       	3853256.000       
J-310           	5882420.940       	3848565.000       
J-311           	5883504.920       	3848301.000       
J-312           	5883481.930       	3847844.000       
J-313           	5848062.290       	3855009.000       
J-314           	5877072.860       	3846501.000       
J-315           	5878099.990       	3804090.000       
J-316           	5827737.320       	3821432.000       
J-317           	5854007.010       	3849161.000       
J-318           	5810944.810       	3848591.000       
J-319           	5868214.270       	3853027.000       
J-32            	5860578.430       	3852238.000       
J-320           	5853103.750       	3851909.000       
J-321           	5873902.760       	3827793.000       
J-322           	5847158.880       	3854784.000       
J-323           	5853597.850       	3848122.000       
J-324           	5853491.940       	3849025.000       
J-325           	5845821.080       	3843139.000       
J-326           	5847662.540       	3840857.000       
J-327           	5857548.300       	3844864.000       
J-328           	5841570.220       	3840431.000       
J-329           	5840599.110       	3840488.000       
J-33            	5856752.550       	3854114.000       
J-330           	5875800.990       	3855431.000       
J-331           	5848102.330       	3880616.000       
J-332           	5849806.820       	3881312.000       
J-333           	5842075.690       	3866112.000       
J-334           	5840320.640       	3840802.000       
J-335           	5857141.460       	3865373.000       
J-336           	5833887.330       	3873554.000       
J-337           	5841172.070       	3839759.000       
J-338           	5860245.820       	3843879.000       
J-339           	5833973.030       	3866839.000       
J-34            	5835017.070       	3861190.000       
J-340           	5882523.110       	3836425.000       
J-341           	5882604.490       	3836761.000       
J-342           	5873214.200       	3867984.000       
J-343           	5882299.590       	3847031.000       
J-344           	5846145.700       	3881305.000       
J-345           	5847212.610       	3881717.000       
J-346           	5829035.730       	3846981.000       
J-347           	5859777.230       	3861129.000       
J-348           	5844537.320       	3874417.000       
J-349           	5858159.750       	3836987.000       
J-35            	5849905.730       	3848118.000       
J-350           	5857793.970       	3837040.000       
J-351           	5829099.010       	3845857.000       
J-352           	5846907.940       	3837328.000       
J-353           	5847213.230       	3855007.000       
J-354           	5844248.050       	3863813.000       
J-355           	5825160.920       	3851807.000       
J-356           	5825325.200       	3850858.000       
J-357           	5853535.850       	3846867.000       
J-358           	5854665.880       	3848643.000       
J-359           	5838600.270       	3839890.000       
J-36            	5849595.070       	3848577.000       
J-360           	5836022.140       	3863983.000       
J-361           	5827878.650       	3849844.000       
J-362           	5839925.170       	3838359.000       
J-363           	5869741.670       	3850063.000       
J-364           	5892675.840       	3830075.000       
J-365           	5838505.810       	3839432.000       
J-366           	5846837.620       	3865188.000       
J-367           	5885764.660       	3846057.000       
J-368           	5836493.500       	3873919.000       
J-369           	5836401.490       	3873607.000       
J-37            	5841310.980       	3865892.000       
J-370           	5849391.300       	3874863.000       
J-371           	5847333.810       	3875690.000       
J-372           	5843307.140       	3873147.000       
J-373           	5854015.960       	3849165.000       
J-374           	5835812.680       	3872906.000       
J-375           	5883774.370       	3838017.000       
J-376           	5846728.390       	3881963.000       
J-377           	5876999.150       	3810393.000       
J-378           	5867320.950       	3866555.000       
J-379           	5880886.310       	3836009.000       
J-38            	5840774.790       	3865714.000       
J-380           	5858575.490       	3839602.000       
J-381           	5883680.410       	3856895.000       
J-382           	5882353.000       	3837207.000       
J-383           	5891731.440       	3825897.000       
J-384           	5848476.100       	3876505.000       
J-385           	5880185.490       	3833476.000       
J-386           	5877588.160       	3832550.000       
J-387           	5846032.230       	3849614.000       
J-388           	5857658.480       	3844463.000       
J-389           	5844295.850       	3871016.000       
J-39            	5822984.420       	3839128.000       
J-390           	5857686.260       	3838842.000       
J-391           	5852008.260       	3852988.000       
J-392           	5849039.740       	3848573.000       
J-393           	5847353.840       	3848632.000       
J-394           	5849037.510       	3848431.000       
J-395           	5838370.770       	3847270.000       
J-396           	5885879.560       	3830353.000       
J-397           	5880293.860       	3843664.000       
J-398           	5828783.320       	3834070.000       
J-399           	5851452.230       	3877126.000       
J-4             	5815875.960       	3815566.000       
J-40            	5818810.320       	3839835.000       
J-400           	5842330.180       	3868568.000       
J-401           	5873605.840       	3844898.000       
J-402           	5853472.780       	3853625.000       
J-403           	5857976.370       	3874290.000       
J-404           	5862955.520       	3831398.000       
J-405           	5845534.560       	3869938.000       
J-406           	5856425.090       	3871776.000       
J-407           	5849043.900       	3848492.000       
J-408           	5868952.160       	3849234.000       
J-409           	5857174.810       	3838053.000       
J-41            	5816868.100       	3821057.000       
J-410           	5879693.050       	3837174.000       
J-411           	5875334.150       	3838341.000       
J-412           	5851472.070       	3877112.000       
J-413           	5852124.630       	3876915.000       
J-414           	5836402.090       	3874207.000       
J-415           	5846980.170       	3874780.000       
J-416           	5857886.330       	3836531.000       
J-417           	5854094.150       	3873507.000       
J-418           	5853548.350       	3876087.000       
J-419           	5838275.140       	3826765.000       
J-42            	5827711.920       	3821419.000       
J-420           	5836003.180       	3874035.000       
J-421           	5873077.670       	3832379.000       
J-422           	5871062.090       	3842758.000       
J-423           	5893202.760       	3830528.000       
J-424           	5856757.510       	3853280.000       
J-425           	5844962.410       	3861178.000       
J-426           	5838282.930       	3826828.000       
J-427           	5858422.840       	3849579.000       
J-428           	5845088.110       	3861210.000       
J-429           	5858256.820       	3838856.000       
J-43            	5844185.790       	3864455.000       
J-430           	5858503.140       	3839020.000       
J-431           	5846414.690       	3850380.000       
J-432           	5874345.580       	3841348.000       
J-433           	5849905.330       	3848118.000       
J-434           	5881954.320       	3836536.000       
J-435           	5825146.960       	3851822.000       
J-436           	5847049.840       	3847141.000       
J-437           	5843784.240       	3856653.000       
J-438           	5844132.970       	3856656.000       
J-439           	5838848.880       	3829091.000       
J-44            	5849674.350       	3857177.000       
J-440           	5833888.910       	3861605.000       
J-45            	5849772.960       	3855654.000       
J-46            	5838451.190       	3867574.000       
J-47            	5843851.450       	3864053.000       
J-48            	5851573.720       	3855867.000       
J-49            	5850917.300       	3855264.000       
J-5             	5844007.000       	3858395.000       
J-50            	5847594.500       	3854618.000       
J-51            	5851199.590       	3853889.000       
J-52            	5838959.380       	3829018.000       
J-53            	5834999.300       	3826567.000       
J-54            	5881390.310       	3833973.000       
J-55            	5883057.760       	3831352.000       
J-56            	5824480.060       	3848111.000       
J-57            	5824233.280       	3849428.000       
J-58            	5874841.640       	3820888.000       
J-59            	5873175.320       	3820932.000       
J-6             	5843519.170       	3861040.000       
J-60            	5864079.930       	3852820.000       
J-61            	5866462.750       	3852583.000       
J-62            	5858812.080       	3862997.000       
J-63            	5858825.150       	3863096.000       
J-64            	5884870.550       	3847571.000       
J-65            	5885405.980       	3845825.000       
J-66            	5829064.460       	3842280.000       
J-67            	5834243.850       	3822994.000       
J-68            	5904265.970       	3827482.000       
J-69            	5908484.850       	3811081.000       
J-7             	5843641.160       	3864999.000       
J-70            	5895380.240       	3833158.000       
J-71            	5893038.710       	3830275.000       
J-72            	5890493.770       	3827054.000       
J-73            	5883626.400       	3827132.000       
J-74            	5873776.550       	3869176.000       
J-75            	5867450.270       	3867613.000       
J-76            	5838634.410       	3857887.000       
J-77            	5838619.890       	3857145.000       
J-78            	5871011.050       	3842634.000       
J-79            	5871079.410       	3842752.000       
J-8             	5843191.010       	3865809.000       
J-80            	5848436.050       	3889031.000       
J-81            	5854405.080       	3884322.000       
J-82            	5872507.920       	3825040.000       
J-83            	5872457.200       	3825469.000       
J-84            	5880222.460       	3847339.000       
J-85            	5880302.440       	3846419.000       
J-86            	5874089.960       	3826846.000       
J-87            	5879032.220       	3846710.000       
J-88            	5877638.020       	3846342.000       
J-89            	5847815.250       	3854859.000       
J-9             	5819475.150       	3810791.000       
J-90            	5847927.680       	3855069.000       
J-91            	5877400.680       	3846412.000       
J-92            	5853018.830       	3852020.000       
J-93            	5852735.340       	3852929.000       
J-94            	5888163.720       	3841870.000       
J-95            	5887987.920       	3841676.000       
J-96            	5878926.980       	3845375.000       
J-97            	5847569.660       	3854609.000       
J-98            	5876216.370       	3826212.000       
J-99            	5842079.390       	3840616.000       
O-1A            	5858186.980       	3849789.000       
O-1B            	5853722.500       	3851121.000       
O-2B            	5843958.090       	3856660.000       
O-3B            	5833830.870       	3861530.000       
O-4A            	5895885.470       	3833090.000       
O-4B            	5848278.320       	3848187.000       
O-6B            	5849048.440       	3878852.000       
O-AV-1          	5849719.930       	3889048.000       
O-AV-10         	5880325.090       	3846735.000       
O-AV-100        	5889422.100       	3841494.000       
O-AV-101        	5887523.370       	3840283.000       
O-AV-102        	5887138.890       	3840321.000       
O-AV-103        	5885326.940       	3839376.000       
O-AV-104        	5885748.490       	3838089.000       
O-AV-105        	5884625.160       	3837319.000       
O-AV-106        	5883940.280       	3836387.000       
O-AV-107        	5849412.890       	3880752.000       
O-AV-108        	5882001.150       	3836037.000       
O-AV-109        	5843628.880       	3865840.000       
O-AV-11         	5877996.380       	3845444.000       
O-AV-110        	5882599.290       	3834018.000       
O-AV-111        	5884217.550       	3831437.000       
O-AV-112        	5883975.020       	3831373.000       
O-AV-113        	5884557.060       	3831002.000       
O-AV-114        	5881842.300       	3830998.000       
O-AV-115        	5881447.830       	3829310.000       
O-AV-116        	5881276.930       	3829061.000       
O-AV-117        	5878636.990       	3827592.000       
O-AV-118        	5877514.110       	3826287.000       
O-AV-119        	5877741.110       	3825549.000       
O-AV-12         	5878699.540       	3846377.000       
O-AV-120        	5843025.310       	3865765.000       
O-AV-121        	5875334.120       	3826808.000       
O-AV-122        	5875237.920       	3826789.000       
O-AV-123        	5870233.190       	3837287.000       
O-AV-124        	5870766.970       	3834601.000       
O-AV-125        	5870552.980       	3832176.000       
O-AV-126        	5874704.240       	3831349.000       
O-AV-127        	5870441.060       	3821867.000       
O-AV-128        	5894026.600       	3830136.000       
O-AV-129        	5894587.290       	3830478.000       
O-AV-13         	5836257.070       	3826649.000       
O-AV-130        	5896269.820       	3833903.000       
O-AV-131        	5845784.420       	3864368.000       
O-AV-132        	5896657.300       	3833127.000       
O-AV-133        	5896965.060       	3833017.000       
O-AV-134        	5894647.960       	3830458.000       
O-AV-135        	5905251.280       	3827600.000       
O-AV-136        	5908054.030       	3823944.000       
O-AV-137        	5846096.750       	3874577.000       
O-AV-138        	5845769.110       	3874355.000       
O-AV-139        	5836993.410       	3872735.000       
O-AV-14         	5877341.040       	3848314.000       
O-AV-140        	5862840.070       	3871609.000       
O-AV-141        	5845125.490       	3864840.000       
O-AV-142        	5861775.110       	3869918.000       
O-AV-143        	5863541.860       	3867328.000       
O-AV-144        	5852838.400       	3885522.000       
O-AV-145        	5868464.560       	3867413.000       
O-AV-146        	5866496.770       	3871721.000       
O-AV-147        	5870498.360       	3872959.000       
O-AV-148        	5869435.200       	3869250.000       
O-AV-149        	5869410.340       	3870124.000       
O-AV-15         	5873158.380       	3847214.000       
O-AV-150        	5870897.820       	3863252.000       
O-AV-151        	5845392.040       	3864538.000       
O-AV-152        	5858023.710       	3862353.000       
O-AV-153        	5859186.130       	3862324.000       
O-AV-154        	5848522.140       	3885267.000       
O-AV-155        	5860594.590       	3863471.000       
O-AV-156        	5855678.150       	3857897.000       
O-AV-157        	5868819.110       	3858761.000       
O-AV-158        	5845828.040       	3871087.000       
O-AV-159        	5854793.060       	3857310.000       
O-AV-16         	5870946.490       	3850051.000       
O-AV-160        	5875889.980       	3868916.000       
O-AV-161        	5875113.310       	3869228.000       
O-AV-162        	5881590.760       	3862716.000       
O-AV-163        	5846822.260       	3885256.000       
O-AV-164        	5886299.000       	3856530.000       
O-AV-165        	5884210.030       	3851852.000       
O-AV-166        	5884299.580       	3851141.000       
O-AV-167        	5883566.660       	3848675.000       
O-AV-17         	5854372.670       	3851882.000       
O-AV-18         	5854987.630       	3851154.000       
O-AV-19         	5854901.500       	3849768.000       
O-AV-2          	5845467.930       	3870999.000       
O-AV-20         	5854855.850       	3849834.000       
O-AV-21         	5848456.500       	3883354.000       
O-AV-22         	5855196.870       	3849268.000       
O-AV-23         	5854637.190       	3849170.000       
O-AV-24         	5845707.960       	3841685.000       
O-AV-25         	5855200.030       	3849290.000       
O-AV-26         	5855312.390       	3847446.000       
O-AV-27         	5855336.620       	3847577.000       
O-AV-28         	5855349.890       	3847647.000       
O-AV-29         	5856795.580       	3845216.000       
O-AV-3          	5884558.850       	3848338.000       
O-AV-30         	5856774.470       	3845224.000       
O-AV-31         	5852244.240       	3855379.000       
O-AV-32         	5850996.200       	3855682.000       
O-AV-33         	5855944.130       	3883557.000       
O-AV-34         	5849881.700       	3855128.000       
O-AV-35         	5845922.770       	3841821.000       
O-AV-36         	5849774.120       	3855093.000       
O-AV-37         	5849372.730       	3854997.000       
O-AV-38         	5851948.320       	3853930.000       
O-AV-39         	5848751.150       	3854669.000       
O-AV-4          	5883973.440       	3847460.000       
O-AV-40         	5849077.620       	3854926.000       
O-AV-41         	5848599.940       	3855397.000       
O-AV-42         	5847959.208       	3856722.000       
O-AV-43         	5848225.240       	3855628.000       
O-AV-44         	5848677.800       	3854514.000       
O-AV-45         	5856701.200       	3882753.000       
O-AV-46         	5845647.870       	3840699.000       
O-AV-47         	5852471.750       	3853119.000       
O-AV-48         	5847507.450       	3850396.000       
O-AV-49         	5847160.940       	3849497.000       
O-AV-5          	5884057.060       	3847500.000       
O-AV-50         	5849171.280       	3848723.000       
O-AV-51         	5848794.200       	3847591.000       
O-AV-52         	5848245.350       	3846975.000       
O-AV-53         	5848125.180       	3847175.000       
O-AV-54         	5860853.250       	3847544.000       
O-AV-55         	5861899.350       	3846722.000       
O-AV-56         	5840131.400       	3857091.000       
O-AV-57         	5842404.720       	3840413.000       
O-AV-58         	5864603.840       	3843335.000       
O-AV-59         	5866941.920       	3843769.000       
O-AV-6          	5886093.190       	3847621.000       
O-AV-60         	5871614.220       	3843199.000       
O-AV-61         	5872293.680       	3842794.000       
O-AV-62         	5859907.880       	3840014.000       
O-AV-63         	5858041.370       	3844313.000       
O-AV-64         	5846510.860       	3843047.000       
O-AV-65         	5846666.830       	3843185.000       
O-AV-66         	5857116.180       	3881057.000       
O-AV-67         	5838259.670       	3858709.000       
O-AV-68         	5842496.920       	3839740.000       
O-AV-69         	5835847.010       	3861079.000       
O-AV-7          	5886097.970       	3847551.000       
O-AV-70         	5836255.010       	3860899.000       
O-AV-71         	5834703.810       	3859274.000       
O-AV-72         	5832657.730       	3855450.000       
O-AV-73         	5832769.570       	3853795.000       
O-AV-74         	5836510.320       	3866080.000       
O-AV-75         	5836446.730       	3870915.000       
O-AV-76         	5840800.700       	3863954.000       
O-AV-77         	5843771.070       	3865961.000       
O-AV-78         	5883641.280       	3823251.000       
O-AV-79         	5842426.670       	3839738.000       
O-AV-8          	5886779.910       	3845359.000       
O-AV-80         	5863536.100       	3816550.000       
O-AV-81         	5864240.450       	3805871.000       
O-AV-82         	5830676.800       	3843920.000       
O-AV-83         	5818518.300       	3850300.000       
O-AV-84         	5821261.540       	3851309.000       
O-AV-85         	5915777.960       	3820089.000       
O-AV-86         	5842189.860       	3838426.000       
O-AV-87         	5841736.190       	3836448.000       
O-AV-88         	5857529.530       	3880558.000       
O-AV-89         	5842337.070       	3834450.000       
O-AV-9          	5849509.150       	3888690.000       
O-AV-90         	5842319.850       	3834510.000       
O-AV-91         	5840498.070       	3832761.000       
O-AV-92         	5840254.060       	3829120.000       
O-AV-93         	5839937.200       	3829183.000       
O-AV-94         	5840375.010       	3828915.000       
O-AV-95         	5882089.170       	3836074.000       
O-AV-96         	5832762.380       	3825724.000       
O-AV-97         	5859171.930       	3836195.000       
O-AV-98         	5843905.320       	3865925.000       
O-AV-99         	5889361.190       	3842479.000       
O-BIG_ELKa      	5876113.270       	3852251.000       
O-FASTLANE      	5839056.790       	3828811.000       
O-P292          	5863813.630       	3872933.000       
O-WTP           	5853555.700       	3857418.000       
O-P-~@1A        	5858186.980       	3849789.000       
O-P-~@1B        	5853722.500       	3851121.000       
O-P-~@2B        	5843958.090       	3856660.000       
O-P-~@3B        	5833830.870       	3861530.000       
O-P-~@4A        	5895885.470       	3833090.000       
O-P-~@4B        	5848278.320       	3848187.000       
O-P-~@6B        	5849048.440       	3878852.000       
O-P-~@BIG_ELKa  	5876113.270       	3852251.000       
O-P-~@FASTLANE  	5839056.790       	3828811.000       
O-P-~@P292      	5863813.630       	3872933.000       
O-P-~@WTP       	5853555.700       	3857418.000       
O-V-~@AV-1      	5849719.930       	3889048.000       
O-V-~@AV-10     	5880325.090       	3846735.000       
O-V-~@AV-100    	5889422.100       	3841494.000       
O-V-~@AV-101    	5887523.370       	3840283.000       
O-V-~@AV-102    	5887138.890       	3840321.000       
O-V-~@AV-103    	5885326.940       	3839376.000       
O-V-~@AV-104    	5885748.490       	3838089.000       
O-V-~@AV-105    	5884625.160       	3837319.000       
O-V-~@AV-106    	5883940.280       	3836387.000       
O-V-~@AV-107    	5849412.890       	3880752.000       
O-V-~@AV-108    	5882001.150       	3836037.000       
O-V-~@AV-109    	5843628.880       	3865840.000       
O-V-~@AV-11     	5877996.380       	3845444.000       
O-V-~@AV-110    	5882599.290       	3834018.000       
O-V-~@AV-111    	5884217.550       	3831437.000       
O-V-~@AV-112    	5883975.020       	3831373.000       
O-V-~@AV-113    	5884557.060       	3831002.000       
O-V-~@AV-114    	5881842.300       	3830998.000       
O-V-~@AV-115    	5881447.830       	3829310.000       
O-V-~@AV-116    	5881276.930       	3829061.000       
O-V-~@AV-117    	5878636.990       	3827592.000       
O-V-~@AV-118    	5877514.110       	3826287.000       
O-V-~@AV-119    	5877741.110       	3825549.000       
O-V-~@AV-12     	5878699.540       	3846377.000       
O-V-~@AV-120    	5843025.310       	3865765.000       
O-V-~@AV-121    	5875334.120       	3826808.000       
O-V-~@AV-122    	5875237.920       	3826789.000       
O-V-~@AV-123    	5870233.190       	3837287.000       
O-V-~@AV-124    	5870766.970       	3834601.000       
O-V-~@AV-125    	5870552.980       	3832176.000       
O-V-~@AV-126    	5874704.240       	3831349.000       
O-V-~@AV-127    	5870441.060       	3821867.000       
O-V-~@AV-128    	5894026.600       	3830136.000       
O-V-~@AV-129    	5894587.290       	3830478.000       
O-V-~@AV-13     	5836257.070       	3826649.000       
O-V-~@AV-130    	5896269.820       	3833903.000       
O-V-~@AV-131    	5845784.420       	3864368.000       
O-V-~@AV-132    	5896657.300       	3833127.000       
O-V-~@AV-133    	5896965.060       	3833017.000       
O-V-~@AV-134    	5894647.960       	3830458.000       
O-V-~@AV-135    	5905251.280       	3827600.000       
O-V-~@AV-136    	5908054.030       	3823944.000       
O-V-~@AV-137    	5846096.750       	3874577.000       
O-V-~@AV-138    	5845769.110       	3874355.000       
O-V-~@AV-139    	5836993.410       	3872735.000       
O-V-~@AV-14     	5877341.040       	3848314.000       
O-V-~@AV-140    	5862840.070       	3871609.000       
O-V-~@AV-141    	5845125.490       	3864840.000       
O-V-~@AV-142    	5861775.110       	3869918.000       
O-V-~@AV-143    	5863541.860       	3867328.000       
O-V-~@AV-144    	5852838.400       	3885522.000       
O-V-~@AV-145    	5868464.560       	3867413.000       
O-V-~@AV-146    	5866496.770       	3871721.000       
O-V-~@AV-147    	5870498.360       	3872959.000       
O-V-~@AV-148    	5869435.200       	3869250.000       
O-V-~@AV-149    	5869410.340       	3870124.000       
O-V-~@AV-15     	5873158.380       	3847214.000       
O-V-~@AV-150    	5870897.820       	3863252.000       
O-V-~@AV-151    	5845392.040       	3864538.000       
O-V-~@AV-152    	5858023.710       	3862353.000       
O-V-~@AV-153    	5859186.130       	3862324.000       
O-V-~@AV-154    	5848522.140       	3885267.000       
O-V-~@AV-155    	5860594.590       	3863471.000       
O-V-~@AV-156    	5855678.150       	3857897.000       
O-V-~@AV-157    	5868819.110       	3858761.000       
O-V-~@AV-158    	5845828.040       	3871087.000       
O-V-~@AV-159    	5854793.060       	3857310.000       
O-V-~@AV-16     	5870946.490       	3850051.000       
O-V-~@AV-160    	5875889.980       	3868916.000       
O-V-~@AV-161    	5875113.310       	3869228.000       
O-V-~@AV-162    	5881590.760       	3862716.000       
O-V-~@AV-163    	5846822.260       	3885256.000       
O-V-~@AV-164    	5886299.000       	3856530.000       
O-V-~@AV-165    	5884210.030       	3851852.000       
O-V-~@AV-166    	5884299.580       	3851141.000       
O-V-~@AV-167    	5883566.660       	3848675.000       
O-V-~@AV-17     	5854372.670       	3851882.000       
O-V-~@AV-18     	5854987.630       	3851154.000       
O-V-~@AV-19     	5854901.500       	3849768.000       
O-V-~@AV-2      	5845467.930       	3870999.000       
O-V-~@AV-20     	5854855.850       	3849834.000       
O-V-~@AV-21     	5848456.500       	3883354.000       
O-V-~@AV-22     	5855196.870       	3849268.000       
O-V-~@AV-23     	5854637.190       	3849170.000       
O-V-~@AV-24     	5845707.960       	3841685.000       
O-V-~@AV-25     	5855200.030       	3849290.000       
O-V-~@AV-26     	5855312.390       	3847446.000       
O-V-~@AV-27     	5855336.620       	3847577.000       
O-V-~@AV-28     	5855349.890       	3847647.000       
O-V-~@AV-29     	5856795.580       	3845216.000       
O-V-~@AV-3      	5884558.850       	3848338.000       
O-V-~@AV-30     	5856774.470       	3845224.000       
O-V-~@AV-31     	5852244.240       	3855379.000       
O-V-~@AV-32     	5850996.200       	3855682.000       
O-V-~@AV-33     	5855944.130       	3883557.000       
O-V-~@AV-34     	5849881.700       	3855128.000       
O-V-~@AV-35     	5845922.770       	3841821.000       
O-V-~@AV-36     	5849774.120       	3855093.000       
O-V-~@AV-37     	5849372.730       	3854997.000       
O-V-~@AV-38     	5851948.320       	3853930.000       
O-V-~@AV-39     	5848751.150       	3854669.000       
O-V-~@AV-4      	5883973.440       	3847460.000       
O-V-~@AV-40     	5849077.620       	3854926.000       
O-V-~@AV-41     	5848599.940       	3855397.000       
O-V-~@AV-42     	5847786.176       	3856479.000       
O-V-~@AV-43     	5848225.240       	3855628.000       
O-V-~@AV-44     	5848677.800       	3854514.000       
O-V-~@AV-45     	5856701.200       	3882753.000       
O-V-~@AV-46     	5845647.870       	3840699.000       
O-V-~@AV-47     	5852471.750       	3853119.000       
O-V-~@AV-48     	5847507.450       	3850396.000       
O-V-~@AV-49     	5847160.940       	3849497.000       
O-V-~@AV-5      	5884057.060       	3847500.000       
O-V-~@AV-50     	5849171.280       	3848723.000       
O-V-~@AV-51     	5848794.200       	3847591.000       
O-V-~@AV-52     	5848245.350       	3846975.000       
O-V-~@AV-53     	5848125.180       	3847175.000       
O-V-~@AV-54     	5860853.250       	3847544.000       
O-V-~@AV-55     	5861899.350       	3846722.000       
O-V-~@AV-56     	5840131.400       	3857091.000       
O-V-~@AV-57     	5842404.720       	3840413.000       
O-V-~@AV-58     	5864603.840       	3843335.000       
O-V-~@AV-59     	5866941.920       	3843769.000       
O-V-~@AV-6      	5886093.190       	3847621.000       
O-V-~@AV-60     	5871614.220       	3843199.000       
O-V-~@AV-61     	5872293.680       	3842794.000       
O-V-~@AV-62     	5859907.880       	3840014.000       
O-V-~@AV-63     	5858041.370       	3844313.000       
O-V-~@AV-64     	5846510.860       	3843047.000       
O-V-~@AV-65     	5846666.830       	3843185.000       
O-V-~@AV-66     	5857116.180       	3881057.000       
O-V-~@AV-67     	5838259.670       	3858709.000       
O-V-~@AV-68     	5842496.920       	3839740.000       
O-V-~@AV-69     	5835847.010       	3861079.000       
O-V-~@AV-7      	5886097.970       	3847551.000       
O-V-~@AV-70     	5836255.010       	3860899.000       
O-V-~@AV-71     	5834703.810       	3859274.000       
O-V-~@AV-72     	5832657.730       	3855450.000       
O-V-~@AV-73     	5832769.570       	3853795.000       
O-V-~@AV-74     	5836510.320       	3866080.000       
O-V-~@AV-75     	5836446.730       	3870915.000       
O-V-~@AV-76     	5840800.700       	3863954.000       
O-V-~@AV-77     	5843771.070       	3865961.000       
O-V-~@AV-78     	5883641.280       	3823251.000       
O-V-~@AV-79     	5842426.670       	3839738.000       
O-V-~@AV-8      	5886779.910       	3845359.000       
O-V-~@AV-80     	5863536.100       	3816550.000       
O-V-~@AV-81     	5864240.450       	3805871.000       
O-V-~@AV-82     	5830676.800       	3843920.000       
O-V-~@AV-83     	5818518.300       	3850300.000       
O-V-~@AV-84     	5821261.540       	3851309.000       
O-V-~@AV-85     	5915777.960       	3820089.000       
O-V-~@AV-86     	5842189.860       	3838426.000       
O-V-~@AV-87     	5841736.190       	3836448.000       
O-V-~@AV-88     	5857529.530       	3880558.000       
O-V-~@AV-89     	5842337.070       	3834450.000       
O-V-~@AV-9      	5849509.150       	3888690.000       
O-V-~@AV-90     	5842319.850       	3834510.000       
O-V-~@AV-91     	5840498.070       	3832761.000       
O-V-~@AV-92     	5840254.060       	3829120.000       
O-V-~@AV-93     	5839937.200       	3829183.000       
O-V-~@AV-94     	5840375.010       	3828915.000       
O-V-~@AV-95     	5882089.170       	3836074.000       
O-V-~@AV-96     	5832762.380       	3825724.000       
O-V-~@AV-97     	5859171.930       	3836195.000       
O-V-~@AV-98     	5843905.320       	3865925.000       
O-V-~@AV-99     	5889361.190       	3842479.000       
I-P-~@1A        	5858186.980       	3849789.000       
I-P-~@1B        	5853722.500       	3851121.000       
I-P-~@2B        	5843958.090       	3856660.000       
I-P-~@3B        	5833830.870       	3861530.000       
I-P-~@4A        	5895885.470       	3833090.000       
I-P-~@4B        	5848278.320       	3848187.000       
I-P-~@6B        	5849048.440       	3878852.000       
I-P-~@BIG_ELKa  	5876113.270       	3852251.000       
I-P-~@FASTLANE  	5839056.790       	3828811.000       
I-P-~@P292      	5863813.630       	3872933.000       
I-P-~@WTP       	5853555.700       	3857418.000       
I-V-~@AV-1      	5849719.930       	3889048.000       
I-V-~@AV-10     	5880325.090       	3846735.000       
I-V-~@AV-100    	5889422.100       	3841494.000       
I-V-~@AV-101    	5887523.370       	3840283.000       
I-V-~@AV-102    	5887138.890       	3840321.000       
I-V-~@AV-103    	5885326.940       	3839376.000       
I-V-~@AV-104    	5885748.490       	3838089.000       
I-V-~@AV-105    	5884625.160       	3837319.000       
I-V-~@AV-106    	5883940.280       	3836387.000       
I-V-~@AV-107    	5849412.890       	3880752.000       
I-V-~@AV-108    	5882001.150       	3836037.000       
I-V-~@AV-109    	5843628.880       	3865840.000       
I-V-~@AV-11     	5877996.380       	3845444.000       
I-V-~@AV-110    	5882599.290       	3834018.000       
I-V-~@AV-111    	5884217.550       	3831437.000       
I-V-~@AV-112    	5883975.020       	3831373.000       
I-V-~@AV-113    	5884557.060       	3831002.000       
I-V-~@AV-114    	5881842.300       	3830998.000       
I-V-~@AV-115    	5881447.830       	3829310.000       
I-V-~@AV-116    	5881276.930       	3829061.000       
I-V-~@AV-117    	5878636.990       	3827592.000       
I-V-~@AV-118    	5877514.110       	3826287.000       
I-V-~@AV-119    	5877741.110       	3825549.000       
I-V-~@AV-12     	5878699.540       	3846377.000       
I-V-~@AV-120    	5843025.310       	3865765.000       
I-V-~@AV-121    	5875334.120       	3826808.000       
I-V-~@AV-122    	5875237.920       	3826789.000       
I-V-~@AV-123    	5870233.190       	3837287.000       
I-V-~@AV-124    	5870766.970       	3834601.000       
I-V-~@AV-125    	5870552.980       	3832176.000       
I-V-~@AV-126    	5874704.240       	3831349.000       
I-V-~@AV-127    	5870441.060       	3821867.000       
I-V-~@AV-128    	5894026.600       	3830136.000       
I-V-~@AV-129    	5894587.290       	3830478.000       
I-V-~@AV-13     	5836257.070       	3826649.000       
I-V-~@AV-130    	5896269.820       	3833903.000       
I-V-~@AV-131    	5845784.420       	3864368.000       
I-V-~@AV-132    	5896657.300       	3833127.000       
I-V-~@AV-133    	5896965.060       	3833017.000       
I-V-~@AV-134    	5894647.960       	3830458.000       
I-V-~@AV-135    	5905251.280       	3827600.000       
I-V-~@AV-136    	5908054.030       	3823944.000       
I-V-~@AV-137    	5846096.750       	3874577.000       
I-V-~@AV-138    	5845769.110       	3874355.000       
I-V-~@AV-139    	5836993.410       	3872735.000       
I-V-~@AV-14     	5877341.040       	3848314.000       
I-V-~@AV-140    	5862840.070       	3871609.000       
I-V-~@AV-141    	5845125.490       	3864840.000       
I-V-~@AV-142    	5861775.110       	3869918.000       
I-V-~@AV-143    	5863541.860       	3867328.000       
I-V-~@AV-144    	5852838.400       	3885522.000       
I-V-~@AV-145    	5868464.560       	3867413.000       
I-V-~@AV-146    	5866496.770       	3871721.000       
I-V-~@AV-147    	5870498.360       	3872959.000       
I-V-~@AV-148    	5869435.200       	3869250.000       
I-V-~@AV-149    	5869410.340       	3870124.000       
I-V-~@AV-15     	5873158.380       	3847214.000       
I-V-~@AV-150    	5870897.820       	3863252.000       
I-V-~@AV-151    	5845392.040       	3864538.000       
I-V-~@AV-152    	5858023.710       	3862353.000       
I-V-~@AV-153    	5859186.130       	3862324.000       
I-V-~@AV-154    	5848522.140       	3885267.000       
I-V-~@AV-155    	5860594.590       	3863471.000       
I-V-~@AV-156    	5855678.150       	3857897.000       
I-V-~@AV-157    	5868819.110       	3858761.000       
I-V-~@AV-158    	5845828.040       	3871087.000       
I-V-~@AV-159    	5854793.060       	3857310.000       
I-V-~@AV-16     	5870946.490       	3850051.000       
I-V-~@AV-160    	5875889.980       	3868916.000       
I-V-~@AV-161    	5875113.310       	3869228.000       
I-V-~@AV-162    	5881590.760       	3862716.000       
I-V-~@AV-163    	5846822.260       	3885256.000       
I-V-~@AV-164    	5886299.000       	3856530.000       
I-V-~@AV-165    	5884210.030       	3851852.000       
I-V-~@AV-166    	5884299.580       	3851141.000       
I-V-~@AV-167    	5883566.660       	3848675.000       
I-V-~@AV-17     	5854372.670       	3851882.000       
I-V-~@AV-18     	5854987.630       	3851154.000       
I-V-~@AV-19     	5854901.500       	3849768.000       
I-V-~@AV-2      	5845467.930       	3870999.000       
I-V-~@AV-20     	5854855.850       	3849834.000       
I-V-~@AV-21     	5848456.500       	3883354.000       
I-V-~@AV-22     	5855196.870       	3849268.000       
I-V-~@AV-23     	5854637.190       	3849170.000       
I-V-~@AV-24     	5845707.960       	3841685.000       
I-V-~@AV-25     	5855200.030       	3849290.000       
I-V-~@AV-26     	5855312.390       	3847446.000       
I-V-~@AV-27     	5855336.620       	3847577.000       
I-V-~@AV-28     	5855349.890       	3847647.000       
I-V-~@AV-29     	5856795.580       	3845216.000       
I-V-~@AV-3      	5884558.850       	3848338.000       
I-V-~@AV-30     	5856774.470       	3845224.000       
I-V-~@AV-31     	5852244.240       	3855379.000       
I-V-~@AV-32     	5850996.200       	3855682.000       
I-V-~@AV-33     	5855944.130       	3883557.000       
I-V-~@AV-34     	5849881.700       	3855128.000       
I-V-~@AV-35     	5845922.770       	3841821.000       
I-V-~@AV-36     	5849774.120       	3855093.000       
I-V-~@AV-37     	5849372.730       	3854997.000       
I-V-~@AV-38     	5851948.320       	3853930.000       
I-V-~@AV-39     	5848751.150       	3854669.000       
I-V-~@AV-4      	5883973.440       	3847460.000       
I-V-~@AV-40     	5849077.620       	3854926.000       
I-V-~@AV-41     	5848599.940       	3855397.000       
I-V-~@AV-42     	5847786.176       	3856479.000       
I-V-~@AV-43     	5848225.240       	3855628.000       
I-V-~@AV-44     	5848677.800       	3854514.000       
I-V-~@AV-45     	5856701.200       	3882753.000       
I-V-~@AV-46     	5845647.870       	3840699.000       
I-V-~@AV-47     	5852471.750       	3853119.000       
I-V-~@AV-48     	5847507.450       	3850396.000       
I-V-~@AV-49     	5847160.940       	3849497.000       
I-V-~@AV-5      	5884057.060       	3847500.000       
I-V-~@AV-50     	5849171.280       	3848723.000       
I-V-~@AV-51     	5848794.200       	3847591.000       
I-V-~@AV-52     	5848245.350       	3846975.000       
I-V-~@AV-53     	5848125.180       	3847175.000       
I-V-~@AV-54     	5860853.250       	3847544.000       
I-V-~@AV-55     	5861899.350       	3846722.000       
I-V-~@AV-56     	5840131.400       	3857091.000       
I-V-~@AV-57     	5842404.720       	3840413.000       
I-V-~@AV-58     	5864603.840       	3843335.000       
I-V-~@AV-59     	5866941.920       	3843769.000       
I-V-~@AV-6      	5886093.190       	3847621.000       
I-V-~@AV-60     	5871614.220       	3843199.000       
I-V-~@AV-61     	5872293.680       	3842794.000       
I-V-~@AV-62     	5859907.880       	3840014.000       
I-V-~@AV-63     	5858041.370       	3844313.000       
I-V-~@AV-64     	5846510.860       	3843047.000       
I-V-~@AV-65     	5846666.830       	3843185.000       
I-V-~@AV-66     	5857116.180       	3881057.000       
I-V-~@AV-67     	5838259.670       	3858709.000       
I-V-~@AV-68     	5842496.920       	3839740.000       
I-V-~@AV-69     	5835847.010       	3861079.000       
I-V-~@AV-7      	5886097.970       	3847551.000       
I-V-~@AV-70     	5836255.010       	3860899.000       
I-V-~@AV-71     	5834703.810       	3859274.000       
I-V-~@AV-72     	5832657.730       	3855450.000       
I-V-~@AV-73     	5832769.570       	3853795.000       
I-V-~@AV-74     	5836510.320       	3866080.000       
I-V-~@AV-75     	5836446.730       	3870915.000       
I-V-~@AV-76     	5840800.700       	3863954.000       
I-V-~@AV-77     	5843771.070       	3865961.000       
I-V-~@AV-78     	5883641.280       	3823251.000       
I-V-~@AV-79     	5842426.670       	3839738.000       
I-V-~@AV-8      	5886779.910       	3845359.000       
I-V-~@AV-80     	5863536.100       	3816550.000       
I-V-~@AV-81     	5864240.450       	3805871.000       
I-V-~@AV-82     	5830676.800       	3843920.000       
I-V-~@AV-83     	5818518.300       	3850300.000       
I-V-~@AV-84     	5821261.540       	3851309.000       
I-V-~@AV-85     	5915777.960       	3820089.000       
I-V-~@AV-86     	5842189.860       	3838426.000       
I-V-~@AV-87     	5841736.190       	3836448.000       
I-V-~@AV-88     	5857529.530       	3880558.000       
I-V-~@AV-89     	5842337.070       	3834450.000       
I-V-~@AV-9      	5849509.150       	3888690.000       
I-V-~@AV-90     	5842319.850       	3834510.000       
I-V-~@AV-91     	5840498.070       	3832761.000       
I-V-~@AV-92     	5840254.060       	3829120.000       
I-V-~@AV-93     	5839937.200       	3829183.000       
I-V-~@AV-94     	5840375.010       	3828915.000       
I-V-~@AV-95     	5882089.170       	3836074.000       
I-V-~@AV-96     	5832762.380       	3825724.000       
I-V-~@AV-97     	5859171.930       	3836195.000       
I-V-~@AV-98     	5843905.320       	3865925.000       
I-V-~@AV-99     	5889361.190       	3842479.000       

[VERTICES]
;Link            	X-Coord           	Y-Coord

[LABELS]
;X-Coord             Y-Coord             Label & Anchor Node

[BACKDROP]
  DIMENSIONS  	5805703.153       	3792540.700       	5921019.618       	3893791.300       
 UNITS          	None
 FILE           	
 OFFSET         	0.00            	0.00            

[END]
