[TITLE]
;-------------------------------------------------------------------------------
;                               Job Description
;-------------------------------------------------------------------------------
;             
;             
;             
;             
;             
;             
;             
;             
;             
;             

[JUNCTIONS]
;-------------------------------------
;   ID   Elevation   Demand   Pattern
;-------------------------------------
I-AV-1   0   0  
I-AV-10   0   0  
I-AV-11   0   0  
I-AV-12   0   0  
I-AV-13   0   0  
I-AV-14   0   0  
I-AV-15   0   0  
I-AV-16   0   0  
I-AV-17   0   0  
I-AV-18   0   0  
I-AV-19   0   0  
I-AV-2   0   0  
I-AV-20   0   0  
I-AV-21   0   0  
I-AV-22   0   0  
I-AV-23   0   0  
I-AV-24   0   0  
I-AV-25   0   0  
I-AV-26   0   0  
I-AV-27   0   0  
I-AV-28   0   0  
I-AV-29   0   0  
I-AV-3   0   0  
I-AV-30   0   0  
I-AV-31   0   0  
I-AV-32   0   0  
I-AV-33   0   0  
I-AV-34   0   0  
I-AV-35   0   0  
I-AV-36   0   0  
I-AV-37   0   0  
I-AV-38   0   0  
I-AV-39   0   0  
I-AV-4   0   0  
I-AV-40   0   0  
I-AV-41   0   0  
I-AV-42   0   0  
I-AV-43   0   0  
I-AV-44   0   0  
I-AV-45   0   0  
I-AV-46   0   0  
I-AV-47   0   0  
I-AV-48   0   0  
I-AV-5   0   0  
I-AV-6   0   0  
I-AV-7   0   0  
I-AV-8   0   0  
I-AV-9   0   0  
J-1   562.8913   0.101   2 
J-10   520.2289   0.046   2 
J-100   511.1397   0.028   2 
J-101   479.0252   0.184   2 
J-102   543.783   0.03   2 
J-103   475.0625   0.105   2 
J-104   542.0656   0.033   2 
J-105   491.3882   0.066   2 
J-106   549.6645   0.021   2 
J-107   496.2587   0.073   2 
J-108   446.8327   0.054   2 
J-109   487.7427   0.016   2 
J-11   430.5649   0.178   2 
J-110   466.0014   0.031   2 
J-111   540.5714   0.049   2 
J-112   479.7777   0.014   2 
J-113   476.7993   0.058   2 
J-114   554.9426   0.043   2 
J-115   508.9936   0.047   2 
J-12   510.4703   0.112   2 
J-13   534.6743   0.033   2 
J-14   541.0325   0.057   2 
J-15   534.0841   0.042   2 
J-16   529.639   0.126   2 
J-17   556.518   0.127   2 
J-18   528.7275   0.168   2 
J-19   532.2286   0.206   2 
J-2   529.4521   0.073   2 
J-20   523.7924   0.047   2 
J-21   516.0055   0.039   2 
J-22   539.1198   0.094   2 
J-23   558.7332   0.072   2 
J-24   556.0014   0.082   2 
J-25   536.2498   0.06   2 
J-26   504.8818   0.061   2 
J-27   504.8818   0.067   2 
J-28   564.5453   0.107   2 
J-29   464.5145   0.095   2 
J-3   497.2148   0.291   2 
J-30   441.351   0.09   2 
J-31   486.0568   0.042   2 
J-32   538.4549   0.031   2 
J-33   548.0601   0.142   2 
J-34   541.3794   0.093   2 
J-35   548.3697   0.114   2 
J-36   499.0689   0.133   2 
J-37   456.0771   0.195   2 
J-38   450.5527   0.106   2 
J-39   548.0784   0.063   2 
J-4   528.6044   0.12   2 
J-40   561.1884   0.147   2 
J-41   550.2124   0.118   2 
J-42   566.877   0.099   2 
J-43   552.4941   0.161   2 
J-44   550.1797   0.268   2 
J-45   533.2634   0.298   2 
J-46   534.0013   0.045   2 
J-47   505.1468   0.225   2 
J-48   544.5745   0.021   2 
J-49   608.4255   0.146   2 
J-5   447.0452   0.04   2 
J-51   552.2895   0.074   2 
J-52   564.3218   0.077   2 
J-53   605.9576   0.117   2 
J-54   541.0153   0.107   2 
J-55   559.1178   0.096   2 
J-56   533.2596   0.143   2 
J-57   558.6456   0.097   2 
J-58   562.8175   0.082   2 
J-59   531.3474   0.147   2 
J-6   439.077   0.093   2 
J-60   547.087   0.088   2 
J-61   534.5845   0.062   2 
J-62   529.6118   0.112   2 
J-63   446.9675   0.186   2 
J-64   482.6231   0.192   2 
J-65   521.2022   0.074   2 
J-66   606.7291   0.121   2 
J-67   501.3793   0.119   2 
J-68   553.4826   0.117   2 
J-69   524.0004   0.194   2 
J-7   529.7972   0.074   2 
J-70   474.6154   0.139   2 
J-71   549.3378   0.111   2 
J-72   539.7946   0.099   2 
J-73   527.9492   0.109   2 
J-74   520.6242   0.03   2 
J-75   533.5897   0.04   2 
J-76   520.1921   0.045   2 
J-77   508.5829   0.439   2 
J-78   459.6864   0.139   2 
J-79   511.4066   0.009   2 
J-8   529.8056   0.156   2 
J-80   491.1115   0.007   2 
J-81   503.9035   0.2   2 
J-82   541.2109   0.047   2 
J-83   469.6643   0.099   2 
J-84   487.0972   0.069   2 
J-85   486.3602   0.139   2 
J-86   501.4906   0.019   2 
J-87   558.167   0.147   2 
J-88   487.0972   0.266   2 
J-89   487.0972   0.191   2 
J-9   536.2498   0.098   2 
J-90   463.066   0.087   2 
J-91   463.0008   0.074   2 
J-92   520.65   0.243   2 
J-93   538.3912   0.038   2 
J-94   455.7596   0.155   2 
J-95   498.2026   0.123   2 
J-96   550.2169   0.205   2 
J-97   410.1303   0.11   2 
J-98   443.3555   0.081   2 
J-99   509.7083   0.252   2 
O-AV-1   0   0  
O-AV-10   0   0  
O-AV-11   0   0  
O-AV-12   0   0  
O-AV-13   0   0  
O-AV-14   0   0  
O-AV-15   0   0  
O-AV-16   0   0  
O-AV-17   0   0  
O-AV-18   0   0  
O-AV-19   0   0  
O-AV-2   0   0  
O-AV-20   0   0  
O-AV-21   0   0  
O-AV-22   0   0  
O-AV-23   0   0  
O-AV-24   0   0  
O-AV-25   0   0  
O-AV-26   0   0  
O-AV-27   0   0  
O-AV-28   0   0  
O-AV-29   0   0  
O-AV-3   0   0  
O-AV-30   0   0  
O-AV-31   0   0  
O-AV-32   0   0  
O-AV-33   0   0  
O-AV-34   0   0  
O-AV-35   0   0  
O-AV-36   0   0  
O-AV-37   0   0  
O-AV-38   0   0  
O-AV-39   0   0  
O-AV-4   0   0  
O-AV-40   0   0  
O-AV-41   0   0  
O-AV-42   0   0  
O-AV-43   0   0  
O-AV-44   0   0  
O-AV-45   0   0  
O-AV-46   0   0  
O-AV-47   0   0  
O-AV-48   0   0  
O-AV-5   0   0  
O-AV-6   0   0  
O-AV-7   0   0  
O-AV-8   0   0  
O-AV-9   0   0  
O-V-~@AV-1   0   0  
O-V-~@AV-10   0   0  
O-V-~@AV-11   0   0  
O-V-~@AV-12   0   0  
O-V-~@AV-13   0   0  
O-V-~@AV-14   0   0  
O-V-~@AV-15   0   0  
O-V-~@AV-16   0   0  
O-V-~@AV-17   0   0  
O-V-~@AV-18   0   0  
O-V-~@AV-19   0   0  
O-V-~@AV-2   0   0  
O-V-~@AV-20   0   0  
O-V-~@AV-21   0   0  
O-V-~@AV-22   0   0  
O-V-~@AV-23   0   0  
O-V-~@AV-24   0   0  
O-V-~@AV-25   0   0  
O-V-~@AV-26   0   0  
O-V-~@AV-27   0   0  
O-V-~@AV-28   0   0  
O-V-~@AV-29   0   0  
O-V-~@AV-3   0   0  
O-V-~@AV-30   0   0  
O-V-~@AV-31   0   0  
O-V-~@AV-32   0   0  
O-V-~@AV-33   0   0  
O-V-~@AV-34   0   0  
O-V-~@AV-35   0   0  
O-V-~@AV-36   0   0  
O-V-~@AV-37   0   0  
O-V-~@AV-38   0   0  
O-V-~@AV-39   0   0  
O-V-~@AV-4   0   0  
O-V-~@AV-40   0   0  
O-V-~@AV-41   0   0  
O-V-~@AV-42   0   0  
O-V-~@AV-43   0   0  
O-V-~@AV-44   0   0  
O-V-~@AV-45   0   0  
O-V-~@AV-46   0   0  
O-V-~@AV-47   0   0  
O-V-~@AV-48   0   0  
O-V-~@AV-5   0   0  
O-V-~@AV-6   0   0  
O-V-~@AV-7   0   0  
O-V-~@AV-8   0   0  
O-V-~@AV-9   0   0  
I-V-~@AV-1   0   0  
I-V-~@AV-10   0   0  
I-V-~@AV-11   0   0  
I-V-~@AV-12   0   0  
I-V-~@AV-13   0   0  
I-V-~@AV-14   0   0  
I-V-~@AV-15   0   0  
I-V-~@AV-16   0   0  
I-V-~@AV-17   0   0  
I-V-~@AV-18   0   0  
I-V-~@AV-19   0   0  
I-V-~@AV-2   0   0  
I-V-~@AV-20   0   0  
I-V-~@AV-21   0   0  
I-V-~@AV-22   0   0  
I-V-~@AV-23   0   0  
I-V-~@AV-24   0   0  
I-V-~@AV-25   0   0  
I-V-~@AV-26   0   0  
I-V-~@AV-27   0   0  
I-V-~@AV-28   0   0  
I-V-~@AV-29   0   0  
I-V-~@AV-3   0   0  
I-V-~@AV-30   0   0  
I-V-~@AV-31   0   0  
I-V-~@AV-32   0   0  
I-V-~@AV-33   0   0  
I-V-~@AV-34   0   0  
I-V-~@AV-35   0   0  
I-V-~@AV-36   0   0  
I-V-~@AV-37   0   0  
I-V-~@AV-38   0   0  
I-V-~@AV-39   0   0  
I-V-~@AV-4   0   0  
I-V-~@AV-40   0   0  
I-V-~@AV-41   0   0  
I-V-~@AV-42   0   0  
I-V-~@AV-43   0   0  
I-V-~@AV-44   0   0  
I-V-~@AV-45   0   0  
I-V-~@AV-46   0   0  
I-V-~@AV-47   0   0  
I-V-~@AV-48   0   0  
I-V-~@AV-5   0   0  
I-V-~@AV-6   0   0  
I-V-~@AV-7   0   0  
I-V-~@AV-8   0   0  
I-V-~@AV-9   0   0  

[DEMANDS]
;-------------------------------------
;   ID   Demand   Pattern             
;-------------------------------------
J-1  0.101   2 
J-10  0.046   2 
J-100  0.028   2 
J-101  0.184   2 
J-102  0.03   2 
J-103  0.105   2 
J-104  0.033   2 
J-105  0.066   2 
J-106  0.021   2 
J-107  0.073   2 
J-108  0.054   2 
J-109  0.016   2 
J-11  0.178   2 
J-110  0.031   2 
J-111  0.049   2 
J-112  0.014   2 
J-113  0.058   2 
J-114  0.043   2 
J-115  0.047   2 
J-12  0.112   2 
J-13  0.033   2 
J-14  0.057   2 
J-15  0.042   2 
J-16  0.126   2 
J-17  0.127   2 
J-18  0.168   2 
J-19  0.206   2 
J-2  0.073   2 
J-20  0.047   2 
J-21  0.039   2 
J-22  0.094   2 
J-23  0.072   2 
J-24  0.082   2 
J-25  0.06   2 
J-26  0.061   2 
J-27  0.067   2 
J-28  0.107   2 
J-29  0.095   2 
J-3  0.291   2 
J-30  0.09   2 
J-31  0.042   2 
J-32  0.031   2 
J-33  0.142   2 
J-34  0.093   2 
J-35  0.114   2 
J-36  0.133   2 
J-37  0.195   2 
J-38  0.106   2 
J-39  0.063   2 
J-4  0.12   2 
J-40  0.147   2 
J-41  0.118   2 
J-42  0.099   2 
J-43  0.161   2 
J-44  0.268   2 
J-45  0.298   2 
J-46  0.045   2 
J-47  0.225   2 
J-48  0.021   2 
J-49  0.146   2 
J-5  0.04   2 
J-51  0.074   2 
J-52  0.077   2 
J-53  0.117   2 
J-54  0.107   2 
J-55  0.096   2 
J-56  0.143   2 
J-57  0.097   2 
J-58  0.082   2 
J-59  0.147   2 
J-6  0.093   2 
J-60  0.088   2 
J-61  0.062   2 
J-62  0.112   2 
J-63  0.186   2 
J-64  0.192   2 
J-65  0.074   2 
J-66  0.121   2 
J-67  0.119   2 
J-68  0.117   2 
J-69  0.194   2 
J-7  0.074   2 
J-70  0.139   2 
J-71  0.111   2 
J-72  0.099   2 
J-73  0.109   2 
J-74  0.03   2 
J-75  0.04   2 
J-76  0.045   2 
J-77  0.439   2 
J-78  0.139   2 
J-79  0.009   2 
J-8  0.156   2 
J-80  0.007   2 
J-81  0.2   2 
J-82  0.047   2 
J-83  0.099   2 
J-84  0.069   2 
J-85  0.139   2 
J-86  0.019   2 
J-87  0.147   2 
J-88  0.266   2 
J-89  0.191   2 
J-9  0.098   2 
J-90  0.087   2 
J-91  0.074   2 
J-92  0.243   2 
J-93  0.038   2 
J-94  0.155   2 
J-95  0.123   2 
J-96  0.205   2 
J-97  0.11   2 
J-98  0.081   2 
J-99  0.252   2 


[COORDINATES]
; Node, X - coord, Y - coord
;----------------------------
I-AV-1         4650469.93    3607187 
I-AV-10        4649351.17    3606076 
I-AV-11        4649904.49    3606400 
I-AV-12        4650621.84    3607310 
I-AV-13        4650295.85    3606852 
I-AV-14        4650005.62    3607099 
I-AV-15        4649499.41    3607339 
I-AV-16        4648591.95    3607440 
I-AV-17        4647861.83    3607917 
I-AV-18        4646536.64    3609253 
I-AV-19        4646959.42    3608829 
I-AV-2         4647056.03    3606943 
I-AV-20        4646911.72    3608580 
I-AV-21        4646874.17    3609029 
I-AV-22        4649585.16    3608888 
I-AV-23        4650660       3607372 
I-AV-24        4649937.53    3609199 
I-AV-25        4649975.04    3608204 
I-AV-26        4649592.67    3608396 
I-AV-27        4650266.81    3607955 
I-AV-28        4649246.97    3608525 
I-AV-29        4649255.75    3608479 
I-AV-3         4646062.87    3609134 
I-AV-30        4649372.84    3608303 
I-AV-31        4649058.68    3608181 
I-AV-32        4648752.04    3607921 
I-AV-33        4649166.28    3607288 
I-AV-34        4650651.28    3607363 
I-AV-35        4649662.67    3607848 
I-AV-36        4646542.04    3608325 
I-AV-37        4643298.19    3605726 
I-AV-38        4649231.57    3608227 
I-AV-39        4649736.48    3608024 
I-AV-4         4647553.27    3606548 
I-AV-40        4649841.35    3607567 
I-AV-41        4649814.83    3608020 
I-AV-42        4649995.2     3607893 
I-AV-43        4650016.84    3607915 
I-AV-44        4650655.3     3607405 
I-AV-45        4642364.67    3604481 
I-AV-46        4643157.4     3605017 
I-AV-47        4645200.79    3607237 
I-AV-48        4645258.78    3607622 
I-AV-5         4648771.59    3606822 
I-AV-6         4648868.14    3606824 
I-AV-7         4649165.23    3606736 
I-AV-8         4649495.66    3606484 
I-AV-9         4649501.92    3606399 
J-1            4649695.5     3606731 
J-10           4651123.5     3607764 
J-100          4648206.49    3608469 
J-101          4648554.99    3609401 
J-102          4649130.51    3605238 
J-103          4648791       3610305 
J-104          4649037.5     3607199 
J-105          4647414       3607539 
J-106          4650474.51    3608306 
J-107          4647242.51    3607275 
J-108          4643748.5     3604272 
J-109          4647460.01    3607183 
J-11           4646335.25    3604243 
J-110          4648762.5     3609093 
J-111          4645532.01    3608622 
J-112          4647612       3607462 
J-113          4641846.51    3605218 
J-114          4648454.51    3606791 
J-115          4647883.5     3607065 
J-12           4645978.5     3609206 
J-13           4645613.3     3609539 
J-14           4649283       3608005 
J-15           4649476.99    3608222 
J-16           4649741.51    3606202 
J-17           4649456.49    3606436 
J-18           4649773.01    3608786 
J-19           4649544       3608291 
J-2            4649984.5     3606496 
J-20           4650393.5     3607097 
J-21           4650469.48    3607050 
J-22           4650166.99    3607292 
J-23           4650399.5     3607566 
J-24           4649894       3607524 
J-25           4650632.5     3607378 
J-26           4646865.48    3608467 
J-27           4646871.51    3608484 
J-28           4649255.01    3606160 
J-29           4642571.5     3604747 
J-3            4648356.99    3605875 
J-30           4641207       3604879 
J-31           4640964       3605919 
J-32           4648577.49    3607068 
J-33           4648812       3606869 
J-34           4649843.49    3608053 
J-35           4650231.49    3608498 
J-36           4646321.99    3608921 
J-37           4644413.49    3604446 
J-38           4645951.5     3604466 
J-39           4650393.01    3608693 
J-4            4648781.5     3605526 
J-40           4650580.5     3608626 
J-41           4649091.01    3606644 
J-42           4649586.51    3607269 
J-43           4649331.5     3607475 
J-44           4647984       3606338 
J-45           4649528.5     3608257 
J-46           4649502.99    3608202 
J-47           4646983       3606803 
J-48           4650231.49    3608819 
J-49           4645344       3607503 
J-5            4641545.84    3603372 
J-51           4649129       3606690 
J-52           4649370.49    3606996 
J-53           4645414.51    3607517 
J-54           4649824.5     3608031 
J-55           4650123.99    3607789 
J-56           4649797.48    3608838 
J-57           4650084.49    3607744 
J-58           4650352.48    3607603 
J-59           4648450       3607257 
J-6            4642207.49    3604280 
J-60           4648850.01    3606914 
J-61           4649147       3608112 
J-62           4649318.49    3608345 
J-63           4642888       3605154 
J-64           4646658.5     3609384 
J-65           4650212.01    3606756 
J-66           4645372       3607480 
J-67           4648277       3607832 
J-68           4649920       3606997 
J-69           4648775.49    3608403 
J-7            4648797.5     3607794 
J-70           4647575.99    3607979 
J-71           4649588.99    3607765 
J-72           4649785.02    3607986 
J-73           4648651.5     3607521 
J-74           4650718.99    3607308 
J-75           4650593.49    3607333 
J-76           4650680.83    3607262 
J-77           4648167.5     3608159 
J-78           4644262.99    3604514 
J-79           4650733.51    3607220 
J-8            4648909.5     3607799 
J-80           4650551       3606996 
J-81           4646851.01    3608500 
J-82           4650020.5     3609064 
J-83           4646742       3610348 
J-84           4646946.5     3608943 
J-85           4648472.49    3609980 
J-86           4648764.01    3609994 
J-87           4650144.5     3607813 
J-88           4646957.51    3608930 
J-89           4646963.01    3608949 
J-9            4650643.01    3607390 
J-90           4646965.53    3609594 
J-91           4648451.99    3611091 
J-92           4649921.49    3609723 
J-93           4650483.51    3609709 
J-94           4643578       3604819 
J-95           4646714       3605130 
J-96           4649605.5     3605857 
J-97           4649889       3604793 
J-98           4641488.01    3604821 
J-99           4648171.49    3608188 
O-AV-1         4650469.93    3607187 
O-AV-10        4649351.17    3606076 
O-AV-11        4649904.49    3606400 
O-AV-12        4650621.84    3607310 
O-AV-13        4650295.85    3606852 
O-AV-14        4650005.62    3607099 
O-AV-15        4649499.41    3607339 
O-AV-16        4648591.95    3607440 
O-AV-17        4647861.83    3607917 
O-AV-18        4646536.64    3609253 
O-AV-19        4646959.42    3608829 
O-AV-2         4647056.03    3606943 
O-AV-20        4646911.72    3608580 
O-AV-21        4646874.17    3609029 
O-AV-22        4649585.16    3608888 
O-AV-23        4650660       3607372 
O-AV-24        4649937.53    3609199 
O-AV-25        4649975.04    3608204 
O-AV-26        4649592.67    3608396 
O-AV-27        4650266.81    3607955 
O-AV-28        4649246.97    3608525 
O-AV-29        4649255.75    3608479 
O-AV-3         4646062.87    3609134 
O-AV-30        4649372.84    3608303 
O-AV-31        4649058.68    3608181 
O-AV-32        4648752.04    3607921 
O-AV-33        4649166.28    3607288 
O-AV-34        4650651.28    3607363 
O-AV-35        4649662.67    3607848 
O-AV-36        4646542.04    3608325 
O-AV-37        4643298.19    3605726 
O-AV-38        4649231.57    3608227 
O-AV-39        4649736.48    3608024 
O-AV-4         4647553.27    3606548 
O-AV-40        4649841.35    3607567 
O-AV-41        4649814.83    3608020 
O-AV-42        4649995.2     3607893 
O-AV-43        4650016.84    3607915 
O-AV-44        4650655.3     3607405 
O-AV-45        4642364.67    3604481 
O-AV-46        4643157.4     3605017 
O-AV-47        4645200.79    3607237 
O-AV-48        4645258.78    3607622 
O-AV-5         4648771.59    3606822 
O-AV-6         4648868.14    3606824 
O-AV-7         4649165.23    3606736 
O-AV-8         4649495.66    3606484 
O-AV-9         4649501.92    3606399 
R-1            4650628.18    3607185 
T-1            4645131.8     3607799 
O-V-~@AV-1     4650469.93    3607187 
O-V-~@AV-10    4649351.17    3606076 
O-V-~@AV-11    4649904.49    3606400 
O-V-~@AV-12    4650621.84    3607310 
O-V-~@AV-13    4650295.85    3606852 
O-V-~@AV-14    4650005.62    3607099 
O-V-~@AV-15    4649499.41    3607339 
O-V-~@AV-16    4648591.95    3607440 
O-V-~@AV-17    4647861.83    3607917 
O-V-~@AV-18    4646536.64    3609253 
O-V-~@AV-19    4646959.42    3608829 
O-V-~@AV-2     4647056.03    3606943 
O-V-~@AV-20    4646911.72    3608580 
O-V-~@AV-21    4646874.17    3609029 
O-V-~@AV-22    4649585.16    3608888 
O-V-~@AV-23    4650660       3607372 
O-V-~@AV-24    4649937.53    3609199 
O-V-~@AV-25    4649975.04    3608204 
O-V-~@AV-26    4649592.67    3608396 
O-V-~@AV-27    4650266.81    3607955 
O-V-~@AV-28    4649246.97    3608525 
O-V-~@AV-29    4649255.75    3608479 
O-V-~@AV-3     4646062.87    3609134 
O-V-~@AV-30    4649372.84    3608303 
O-V-~@AV-31    4649058.68    3608181 
O-V-~@AV-32    4648752.04    3607921 
O-V-~@AV-33    4649166.28    3607288 
O-V-~@AV-34    4650651.28    3607363 
O-V-~@AV-35    4649662.67    3607848 
O-V-~@AV-36    4646542.04    3608325 
O-V-~@AV-37    4643298.19    3605726 
O-V-~@AV-38    4649231.57    3608227 
O-V-~@AV-39    4649736.48    3608024 
O-V-~@AV-4     4647553.27    3606548 
O-V-~@AV-40    4649841.35    3607567 
O-V-~@AV-41    4649814.83    3608020 
O-V-~@AV-42    4649995.2     3607893 
O-V-~@AV-43    4650016.84    3607915 
O-V-~@AV-44    4650655.3     3607405 
O-V-~@AV-45    4642364.67    3604481 
O-V-~@AV-46    4643157.4     3605017 
O-V-~@AV-47    4645200.79    3607237 
O-V-~@AV-48    4645258.78    3607622 
O-V-~@AV-5     4648771.59    3606822 
O-V-~@AV-6     4648868.14    3606824 
O-V-~@AV-7     4649165.23    3606736 
O-V-~@AV-8     4649495.66    3606484 
O-V-~@AV-9     4649501.92    3606399 
I-V-~@AV-1     4650469.93    3607187 
I-V-~@AV-10    4649351.17    3606076 
I-V-~@AV-11    4649904.49    3606400 
I-V-~@AV-12    4650621.84    3607310 
I-V-~@AV-13    4650295.85    3606852 
I-V-~@AV-14    4650005.62    3607099 
I-V-~@AV-15    4649499.41    3607339 
I-V-~@AV-16    4648591.95    3607440 
I-V-~@AV-17    4647861.83    3607917 
I-V-~@AV-18    4646536.64    3609253 
I-V-~@AV-19    4646959.42    3608829 
I-V-~@AV-2     4647056.03    3606943 
I-V-~@AV-20    4646911.72    3608580 
I-V-~@AV-21    4646874.17    3609029 
I-V-~@AV-22    4649585.16    3608888 
I-V-~@AV-23    4650660       3607372 
I-V-~@AV-24    4649937.53    3609199 
I-V-~@AV-25    4649975.04    3608204 
I-V-~@AV-26    4649592.67    3608396 
I-V-~@AV-27    4650266.81    3607955 
I-V-~@AV-28    4649246.97    3608525 
I-V-~@AV-29    4649255.75    3608479 
I-V-~@AV-3     4646062.87    3609134 
I-V-~@AV-30    4649372.84    3608303 
I-V-~@AV-31    4649058.68    3608181 
I-V-~@AV-32    4648752.04    3607921 
I-V-~@AV-33    4649166.28    3607288 
I-V-~@AV-34    4650651.28    3607363 
I-V-~@AV-35    4649662.67    3607848 
I-V-~@AV-36    4646542.04    3608325 
I-V-~@AV-37    4643298.19    3605726 
I-V-~@AV-38    4649231.57    3608227 
I-V-~@AV-39    4649736.48    3608024 
I-V-~@AV-4     4647553.27    3606548 
I-V-~@AV-40    4649841.35    3607567 
I-V-~@AV-41    4649814.83    3608020 
I-V-~@AV-42    4649995.2     3607893 
I-V-~@AV-43    4650016.84    3607915 
I-V-~@AV-44    4650655.3     3607405 
I-V-~@AV-45    4642364.67    3604481 
I-V-~@AV-46    4643157.4     3605017 
I-V-~@AV-47    4645200.79    3607237 
I-V-~@AV-48    4645258.78    3607622 
I-V-~@AV-5     4648771.59    3606822 
I-V-~@AV-6     4648868.14    3606824 
I-V-~@AV-7     4649165.23    3606736 
I-V-~@AV-8     4649495.66    3606484 
I-V-~@AV-9     4649501.92    3606399 
@~R-1          4650628.18    3607185 
@~T-1          4645131.8     3607799 

[TANKS]
;-------------------------------------------------------------------------
;                    Initial   Minimum   Maximum             Min      Vol.
;   ID   Elevation    Level     Level     Level    Diameter  Volume  Curve
;-------------------------------------------------------------------------

[EMITTERS]
;-----------------------------------
;Node FlowCoeff (flowunits@1psidrop)
;-----------------------------------

[RESERVOIRS]
;----------------------------------------------------------------------
;                    Initial   Minimum   Maximum            Connecting
;   ID   Elevation    Level     Level     Level    Diameter    Pipe
;----------------------------------------------------------------------
R-1            524.7867     
T-1            645          

[PIPES]
;----------------------------------------------------------------------------
;        Head   Tail                        Roughness    Minor Loss    Check
;   ID   Node   Node   Length   Diameter   Coefficient   Coefficient   Valve
;----------------------------------------------------------------------------
D_V-~@AV-1 O-AV-1 O-V-~@AV-1  0.1  57.56219  150  0 
D_V-~@AV-10 O-AV-10 O-V-~@AV-10  0.1  57.56219  150  0 
D_V-~@AV-11 O-AV-11 O-V-~@AV-11  0.1  57.56219  150  0 
D_V-~@AV-12 O-AV-12 O-V-~@AV-12  0.1  57.56219  150  0 
D_V-~@AV-13 O-AV-13 O-V-~@AV-13  0.1  57.56219  150  0 
D_V-~@AV-14 O-AV-14 O-V-~@AV-14  0.1  57.56219  150  0 
D_V-~@AV-15 O-AV-15 O-V-~@AV-15  0.1  57.56219  150  0 
D_V-~@AV-16 O-AV-16 O-V-~@AV-16  0.1  57.56219  150  0 
D_V-~@AV-17 O-AV-17 O-V-~@AV-17  0.1  57.56219  150  0 
D_V-~@AV-18 O-AV-18 O-V-~@AV-18  0.1  57.56219  150  0 
D_V-~@AV-19 O-AV-19 O-V-~@AV-19  0.1  57.56219  150  0 
D_V-~@AV-2 O-AV-2 O-V-~@AV-2  0.1  57.56219  150  0 
D_V-~@AV-20 O-AV-20 O-V-~@AV-20  0.1  57.56219  150  0 
D_V-~@AV-21 O-AV-21 O-V-~@AV-21  0.1  57.56219  150  0 
D_V-~@AV-22 O-AV-22 O-V-~@AV-22  0.1  57.56219  150  0 
D_V-~@AV-23 O-AV-23 O-V-~@AV-23  0.1  57.56219  150  0 
D_V-~@AV-24 O-AV-24 O-V-~@AV-24  0.1  57.56219  150  0 
D_V-~@AV-25 O-AV-25 O-V-~@AV-25  0.1  57.56219  150  0 
D_V-~@AV-26 O-AV-26 O-V-~@AV-26  0.1  57.56219  150  0 
D_V-~@AV-27 O-AV-27 O-V-~@AV-27  0.1  57.56219  150  0 
D_V-~@AV-28 O-AV-28 O-V-~@AV-28  0.1  57.56219  150  0 
D_V-~@AV-29 O-AV-29 O-V-~@AV-29  0.1  57.56219  150  0 
D_V-~@AV-3 O-AV-3 O-V-~@AV-3  0.1  57.56219  150  0 
D_V-~@AV-30 O-AV-30 O-V-~@AV-30  0.1  57.56219  150  0 
D_V-~@AV-31 O-AV-31 O-V-~@AV-31  0.1  57.56219  150  0 
D_V-~@AV-32 O-AV-32 O-V-~@AV-32  0.1  57.56219  150  0 
D_V-~@AV-33 O-AV-33 O-V-~@AV-33  0.1  57.56219  150  0 
D_V-~@AV-34 O-AV-34 O-V-~@AV-34  0.1  57.56219  150  0 
D_V-~@AV-35 O-AV-35 O-V-~@AV-35  0.1  57.56219  150  0 
D_V-~@AV-36 O-AV-36 O-V-~@AV-36  0.1  57.56219  150  0 
D_V-~@AV-37 O-AV-37 O-V-~@AV-37  0.1  57.56219  150  0 
D_V-~@AV-38 O-AV-38 O-V-~@AV-38  0.1  57.56219  150  0 
D_V-~@AV-39 O-AV-39 O-V-~@AV-39  0.1  57.56219  150  0 
D_V-~@AV-4 O-AV-4 O-V-~@AV-4  0.1  57.56219  150  0 
D_V-~@AV-40 O-AV-40 O-V-~@AV-40  0.1  57.56219  150  0 
D_V-~@AV-41 O-AV-41 O-V-~@AV-41  0.1  57.56219  150  0 
D_V-~@AV-42 O-AV-42 O-V-~@AV-42  0.1  57.56219  150  0 
D_V-~@AV-43 O-AV-43 O-V-~@AV-43  0.1  57.56219  150  0 
D_V-~@AV-44 O-AV-44 O-V-~@AV-44  0.1  57.56219  150  0 
D_V-~@AV-45 O-AV-45 O-V-~@AV-45  0.1  57.56219  150  0 
D_V-~@AV-46 O-AV-46 O-V-~@AV-46  0.1  57.56219  150  0 
D_V-~@AV-47 O-AV-47 O-V-~@AV-47  0.1  57.56219  150  0 
D_V-~@AV-48 O-AV-48 O-V-~@AV-48  0.1  57.56219  150  0 
D_V-~@AV-5 O-AV-5 O-V-~@AV-5  0.1  57.56219  150  0 
D_V-~@AV-6 O-AV-6 O-V-~@AV-6  0.1  57.56219  150  0 
D_V-~@AV-7 O-AV-7 O-V-~@AV-7  0.1  57.56219  150  0 
D_V-~@AV-8 O-AV-8 O-V-~@AV-8  0.1  57.56219  150  0 
D_V-~@AV-9 O-AV-9 O-V-~@AV-9  0.1  57.56219  150  0 
P-1 J-1 J-2  372.489  6  100.0998  0 
P-10 J-18 I-AV-26  429.678  4  100.0998  0 
P-100 J-95 J-44  1753.098  6  100.0998  0 
P-101 J-17 I-AV-8  62.33  6  100.0998  0 
P-102 J-87 I-AV-27  187.3  6  100.0998  0 
P-103 J-34 I-AV-43  221.699  6  100.0998  0 
P-104 J-55 J-58  294.459  3  100.0998  0 
P-105 J-96 J-97  1101.348  4  100.0998  0 
P-106 J-6 J-98  900.78  12  100.0998  0 
P-107 J-62 I-AV-30  68.838  4  100.0998  0 
P-108 J-98 J-30  286.88  10  100.0998  0 
P-109 J-99 J-100  282.95  4  100.0998  0 
P-11 J-20 J-21  89.348  6  100.0998  0 
P-110 J-46 I-AV-39  293.808  4  100.0998  0 
P-111 J-101 J-85  584.34  6  100.0998  0 
P-112 J-84 J-89  17.569  6  100.0998  0 
P-113 J-88 J-89  19.78  3  100.0998  0 
P-114 J-19 J-34  382.54  6  100.0998  0 
P-115 J-4 J-102  452.489  6  100.0998  0 
P-116 J-92 J-103  1271.5  6  100.0998  0 
P-117 J-26 J-70  862.218  6  100.0998  0 
P-118 J-16 J-96  370.609  4  100.0998  0 
P-119 J-99 I-AV-28  1127.229  6  100.0998  0 
P-12 J-22 J-23  358.98  6  100.0998  0 
P-120 J-9 I-AV-23  24.958  6  100.0998  0 
P-121 J-18 I-AV-22  213.779  6  100.0998  0 
P-122 J-61 J-14  173.059  6  100.0998  0 
P-123 J-73 J-104  502.04  6  100.0998  0 
P-124 J-92 I-AV-24  523.979  4  100.0998  0 
P-125 J-105 J-70  468.39  6  100.0998  0 
P-126 J-27 I-AV-19  355.459  3  100.0998  0 
P-127 J-67 J-73  487.109  6  100.0998  0 
P-128 J-35 J-106  309.868  6  100.0998  0 
P-129 J-107 J-105  314.82  6  100.0998  0 
P-13 J-24 J-22  358.109  6  100.0998  0 
P-130 J-72 I-AV-41  45.159  6  100.0998  0 
P-131 J-54 J-34  29.26  6  100.0998  0 
P-132 J-94 J-108  573.429  6  100.0998  0 
P-133 J-89 J-99  1428.27  6  100.0998  0 
P-134 J-107 J-109  236.36  6  100.0998  0 
P-135 J-77 J-99  29.02  4  100.0998  0 
P-136 J-87 J-9  653.63  6  100.0998  0 
P-137 J-66 J-53  56.528  12  100.0998  0 
P-138 J-101 J-110  371.808  6  100.0998  0 
P-139 J-47 I-AV-2  157.86  6  100.0998  0 
P-14 J-25 J-9  16.128  6  100.0998  0 
P-140 J-45 J-54  372.41  3  100.0998  0 
P-141 J-56 J-35  551.33  6  100.0998  0 
P-142 J-81 I-AV-20  100.15  6  100.0998  0 
P-143 J-12 J-111  735.119  6  100.0998  0 
P-144 J-30 J-98  286.88  10  100.0998  0 
P-145 J-105 J-112  212.72  6  100.0998  0 
P-146 J-49 I-AV-36  1453.208  6  100.0998  0 
P-147 J-29 J-113  864.549  6  100.0998  0 
P-148 J-59 J-114  466.278  6  100.0998  0 
P-149 J-94 J-78  750.13  6  100.0998  0 
P-15 J-26 J-27  18.048  6  100.0998  0 
P-150 J-59 J-115  598.229  6  100.0998  0 
P-151 J-28 I-AV-10  127.418  6  100.0998  0 
P-152 J-66 J-49  36.08  12  100.0998  0 
P-153 J-76 R-1  126.44  8  100.0998  0 
P-154 O-AV-1 J-75  191.009  6  100.0998  0 
P-155 O-AV-2 J-107  381.04  6  100.0998  0 
P-156 O-AV-3 J-12  110.51  6  100.0998  0 
P-157 O-AV-4 J-47  624.76  6  100.0998  0 
P-158 O-AV-5 J-33  62.02  6  100.0998  0 
P-159 O-AV-6 J-41  286.049  4  100.0998  0 
P-16 J-4 J-28  791.309  6  100.0998  0 
P-160 O-AV-7 J-52  330.838  6  100.0998  0 
P-161 O-AV-8 J-1  317.14  6  100.0998  0 
P-162 O-AV-9 J-17  58.88  4  100.0998  0 
P-163 O-AV-10 J-96  335.57  6  100.0998  0 
P-164 O-AV-11 J-2  124.87  6  100.0998  0 
P-165 O-AV-12 J-76  75.918  3  100.0998  0 
P-166 O-AV-13 J-21  263.42  6  100.0998  0 
P-167 O-AV-14 J-22  251.619  6  100.0998  0 
P-168 O-AV-15 J-43  215.949  4  100.0998  0 
P-169 O-AV-16 J-59  231.339  6  100.0998  0 
P-17 J-6 I-AV-45  255.919  12  100.0998  0 
P-170 O-AV-17 J-67  423.739  6  100.0998  0 
P-171 O-AV-18 J-64  178.419  4  100.0998  0 
P-172 O-AV-19 J-88  101.37  3  100.0998  0 
P-173 O-AV-20 J-84  365  6  100.0998  0 
P-174 O-AV-21 J-64  415  6  100.0998  0 
P-175 O-AV-22 J-101  1150.81  6  100.0998  0 
P-176 O-AV-23 J-74  86.638  6  100.0998  0 
P-177 O-AV-24 J-56  387.239  4  100.0998  0 
P-178 O-AV-25 J-35  390.678  6  100.0998  0 
P-179 O-AV-26 J-19  115.958  4  100.0998  0 
P-18 J-30 J-31  1067.76  12  100.0998  0 
P-180 O-AV-27 J-40  740.84  6  100.0998  0 
P-181 O-AV-28 J-19  378.368  6  100.0998  0 
P-182 O-AV-29 J-45  351.6  3  100.0998  0 
P-183 O-AV-30 J-15  131.94  4  100.0998  0 
P-184 O-AV-31 J-61  112.11  6  100.0998  0 
P-185 O-AV-32 J-69  481.588  4  100.0998  0 
P-186 O-AV-33 J-43  249.729  6  100.0998  0 
P-187 O-AV-34 J-74  86.86  3  100.0998  0 
P-188 O-AV-35 J-72  184.139  6  100.0998  0 
P-189 O-AV-36 J-81  354.95  6  100.0998  0 
P-19 J-32 J-33  307.89  4  100.0998  0 
P-190 O-AV-37 I-AV-47  2429.33  12  100.0998  0 
P-191 O-AV-38 J-62  146.839  6  100.0998  0 
P-192 O-AV-39 J-72  61.58  4  100.0998  0 
P-193 O-AV-40 J-24  67.98  4  100.0998  0 
P-194 O-AV-41 J-54  14.699  6  100.0998  0 
P-195 O-AV-42 J-55  165.57  3  100.0998  0 
P-196 O-AV-43 J-87  163.27  6  100.0998  0 
P-197 O-AV-44 J-10  590.39  6  100.0998  0 
P-198 O-AV-45 J-29  336.778  12  100.0998  0 
P-199 O-AV-46 J-94  464.82  6  100.0998  0 
P-2 J-3 J-4  549.71  6  100.0998  0 
P-20 J-34 I-AV-25  199.899  6  100.0998  0 
P-200 O-AV-47 J-66  297.5  12  100.0998  0 
P-201 O-AV-48 T-1  217.86  12  100.0998  0 
P-21 J-36 I-AV-3  335.35  6  100.0998  0 
P-22 J-37 J-38  1538.14  6  100.0998  0 
P-23 J-39 J-40  198.94  4  100.0998  0 
P-24 J-33 I-AV-6  72.058  4  100.0998  0 
P-25 J-42 I-AV-15  112.018  4  100.0998  0 
P-26 J-44 I-AV-5  924.14  6  100.0998  0 
P-27 J-45 J-46  60.4  4  100.0998  0 
P-28 J-44 I-AV-4  479  6  100.0998  0 
P-29 J-48 J-39  205.46  4  100.0998  0 
P-3 J-5 J-6  1122.938  12  100.0998  0 
P-30 J-35 J-39  252.63  6  100.0998  0 
P-31 J-49 I-AV-48  146.22  12  100.0998  0 
P-32 J-51 I-AV-7  58.388  6  100.0998  0 
P-33 J-53 J-47  1723.458  6  100.0998  0 
P-34 J-28 J-17  341.92  6  100.0998  0 
P-35 J-54 I-AV-42  219.33  3  100.0998  0 
P-36 J-56 J-18  57.47  4  100.0998  0 
P-37 J-57 J-58  302.579  4  100.0998  0 
P-38 J-59 J-60  527.109  6  100.0998  0 
P-39 J-61 I-AV-38  142.86  6  100.0998  0 
P-4 J-7 J-8  112.11  4  100.0998  0 
P-40 J-29 J-63  515.38  12  100.0998  0 
P-41 J-36 I-AV-18  395.278  4  100.0998  0 
P-42 J-65 I-AV-13  127.198  6  100.0998  0 
P-43 J-52 J-1  419.35  6  100.0998  0 
P-44 J-63 I-AV-37  703.989  12  100.0998  0 
P-45 J-67 J-7  521.869  6  100.0998  0 
P-46 J-19 J-45  37.59  4  100.0998  0 
P-47 J-68 I-AV-14  133.5  6  100.0998  0 
P-48 J-8 I-AV-32  199.339  4  100.0998  0 
P-49 J-52 J-42  348.32  6  100.0998  0 
P-5 J-9 I-AV-44  18.909  6  100.0998  0 
P-50 J-33 J-60  58.9  6  100.0998  0 
P-51 J-70 I-AV-17  292.48  6  100.0998  0 
P-52 J-68 J-65  378.459  6  100.0998  0 
P-53 J-1 J-68  348.079  6  100.0998  0 
P-54 J-71 I-AV-35  110.888  6  100.0998  0 
P-55 J-42 J-68  430.51  4  100.0998  0 
P-56 J-73 I-AV-16  100.4  6  100.0998  0 
P-57 J-25 I-AV-34  24.1  3  100.0998  0 
P-58 J-75 I-AV-12  36.479  3  100.0998  0 
P-59 J-74 J-76  60.348  3  100.0998  0 
P-6 J-11 J-3  2598.32  6  100.0998  0 
P-60 J-43 J-8  532.039  4  100.0998  0 
P-61 J-20 I-AV-1  118.15  6  100.0998  0 
P-62 J-72 J-57  385.028  4  100.0998  0 
P-63 J-15 J-46  32.95  4  100.0998  0 
P-64 J-77 I-AV-29  1134.208  3  100.0998  0 
P-65 J-78 J-37  164.839  6  100.0998  0 
P-66 J-17 J-51  414.75  4  100.0998  0 
P-67 J-76 J-79  67.37  3  100.0998  0 
P-68 J-7 J-73  310.239  6  100.0998  0 
P-69 J-57 J-55  60.06  6  100.0998  0 
P-7 J-12 J-13  494.959  6  100.0998  0 
P-70 J-23 J-25  299.22  3  100.0998  0 
P-71 J-21 J-80  97.778  6  100.0998  0 
P-72 J-22 J-20  299.19  6  100.0998  0 
P-73 J-81 J-36  676.39  6  100.0998  0 
P-74 J-14 J-71  388.72  6  100.0998  0 
P-75 J-40 J-82  710.65  6  100.0998  0 
P-76 J-69 J-62  545.979  4  100.0998  0 
P-77 J-3 J-41  1063.27  6  100.0998  0 
P-78 J-64 J-83  967.369  4  100.0998  0 
P-79 J-84 I-AV-21  112.518  6  100.0998  0 
P-8 J-14 J-15  291.25  6  100.0998  0 
P-80 J-41 J-51  59.848  4  100.0998  0 
P-81 J-58 J-23  60.15  3  100.0998  0 
P-82 J-85 J-86  291.838  6  100.0998  0 
P-83 J-60 I-AV-33  489.989  6  100.0998  0 
P-84 J-75 J-25  59.938  6  100.0998  0 
P-85 J-78 J-37  164.839  6  100.0998  0 
P-86 J-27 J-81  25.86  6  100.0998  0 
P-87 J-55 J-87  31.569  6  100.0998  0 
P-88 J-24 J-57  290.82  6  100.0998  0 
P-89 J-88 J-84  17.03  6  100.0998  0 
P-9 J-16 I-AV-9  309.88  4  100.0998  0 
P-90 J-43 J-71  387.82  6  100.0998  0 
P-91 J-71 I-AV-40  320.91  4  100.0998  0 
P-92 J-89 J-90  645.059  3  100.0998  0 
P-93 J-88 J-77  1434.76  3  100.0998  0 
P-94 J-85 J-91  1111.698  6  100.0998  0 
P-95 J-92 J-93  562.19  6  100.0998  0 
P-96 J-69 I-AV-31  359.489  6  100.0998  0 
P-97 J-63 I-AV-46  302.178  6  100.0998  0 
P-98 J-2 J-65  345.66  6  100.0998  0 
P-99 J-16 I-AV-11  256.368  6  100.0998  0 
V-~@AV-1 I-AV-1 I-V-~@AV-1  0.1  57.56219  150  0 
V-~@AV-10 I-AV-10 I-V-~@AV-10  0.1  57.56219  150  0 
V-~@AV-11 I-AV-11 I-V-~@AV-11  0.1  57.56219  150  0 
V-~@AV-12 I-AV-12 I-V-~@AV-12  0.1  57.56219  150  0 
V-~@AV-13 I-AV-13 I-V-~@AV-13  0.1  57.56219  150  0 
V-~@AV-14 I-AV-14 I-V-~@AV-14  0.1  57.56219  150  0 
V-~@AV-15 I-AV-15 I-V-~@AV-15  0.1  57.56219  150  0 
V-~@AV-16 I-AV-16 I-V-~@AV-16  0.1  57.56219  150  0 
V-~@AV-17 I-AV-17 I-V-~@AV-17  0.1  57.56219  150  0 
V-~@AV-18 I-AV-18 I-V-~@AV-18  0.1  57.56219  150  0 
V-~@AV-19 I-AV-19 I-V-~@AV-19  0.1  57.56219  150  0 
V-~@AV-2 I-AV-2 I-V-~@AV-2  0.1  57.56219  150  0 
V-~@AV-20 I-AV-20 I-V-~@AV-20  0.1  57.56219  150  0 
V-~@AV-21 I-AV-21 I-V-~@AV-21  0.1  57.56219  150  0 
V-~@AV-22 I-AV-22 I-V-~@AV-22  0.1  57.56219  150  0 
V-~@AV-23 I-AV-23 I-V-~@AV-23  0.1  57.56219  150  0 
V-~@AV-24 I-AV-24 I-V-~@AV-24  0.1  57.56219  150  0 
V-~@AV-25 I-AV-25 I-V-~@AV-25  0.1  57.56219  150  0 
V-~@AV-26 I-AV-26 I-V-~@AV-26  0.1  57.56219  150  0 
V-~@AV-27 I-AV-27 I-V-~@AV-27  0.1  57.56219  150  0 
V-~@AV-28 I-AV-28 I-V-~@AV-28  0.1  57.56219  150  0 
V-~@AV-29 I-AV-29 I-V-~@AV-29  0.1  57.56219  150  0 
V-~@AV-3 I-AV-3 I-V-~@AV-3  0.1  57.56219  150  0 
V-~@AV-30 I-AV-30 I-V-~@AV-30  0.1  57.56219  150  0 
V-~@AV-31 I-AV-31 I-V-~@AV-31  0.1  57.56219  150  0 
V-~@AV-32 I-AV-32 I-V-~@AV-32  0.1  57.56219  150  0 
V-~@AV-33 I-AV-33 I-V-~@AV-33  0.1  57.56219  150  0 
V-~@AV-34 I-AV-34 I-V-~@AV-34  0.1  57.56219  150  0 
V-~@AV-35 I-AV-35 I-V-~@AV-35  0.1  57.56219  150  0 
V-~@AV-36 I-AV-36 I-V-~@AV-36  0.1  57.56219  150  0 
V-~@AV-37 I-AV-37 I-V-~@AV-37  0.1  57.56219  150  0 
V-~@AV-38 I-AV-38 I-V-~@AV-38  0.1  57.56219  150  0 
V-~@AV-39 I-AV-39 I-V-~@AV-39  0.1  57.56219  150  0 
V-~@AV-4 I-AV-4 I-V-~@AV-4  0.1  57.56219  150  0 
V-~@AV-40 I-AV-40 I-V-~@AV-40  0.1  57.56219  150  0 
V-~@AV-41 I-AV-41 I-V-~@AV-41  0.1  57.56219  150  0 
V-~@AV-42 I-AV-42 I-V-~@AV-42  0.1  57.56219  150  0 
V-~@AV-43 I-AV-43 I-V-~@AV-43  0.1  57.56219  150  0 
V-~@AV-44 I-AV-44 I-V-~@AV-44  0.1  57.56219  150  0 
V-~@AV-45 I-AV-45 I-V-~@AV-45  0.1  57.56219  150  0 
V-~@AV-46 I-AV-46 I-V-~@AV-46  0.1  57.56219  150  0 
V-~@AV-47 I-AV-47 I-V-~@AV-47  0.1  57.56219  150  0 
V-~@AV-48 I-AV-48 I-V-~@AV-48  0.1  57.56219  150  0 
V-~@AV-5 I-AV-5 I-V-~@AV-5  0.1  57.56219  150  0 
V-~@AV-6 I-AV-6 I-V-~@AV-6  0.1  57.56219  150  0 
V-~@AV-7 I-AV-7 I-V-~@AV-7  0.1  57.56219  150  0 
V-~@AV-8 I-AV-8 I-V-~@AV-8  0.1  57.56219  150  0 
V-~@AV-9 I-AV-9 I-V-~@AV-9  0.1  57.56219  150  0 

[PUMPS]
;-------------------------------------------------------------------------------
;       Head  Tail
;   ID  Node  Node     Characteristics
;-------------------------------------------------------------------------------

[ENERGY]
;--------------------------------
;   PUMP PUMPID  EFFIC. CURVE id
;--------------------------------
GLOBAL PRICE  0 
GLOBAL PATTERN ENRG1
GLOBAL EFFIC  75 

[CURVES]
;-------------------------------------------------------------------------------
;   ID  FLOW   HEAD
;-------------------------------------------------------------------------------
;Tank ID data (Volume vs. Depth)

[VALVES]
~@V-~@AV-1 I-V-~@AV-1 O-V-~@AV-1  1000  TCV  1.915758E+09 
~@V-~@AV-10 I-V-~@AV-10 O-V-~@AV-10  1000  TCV  1.915758E+09 
~@V-~@AV-11 I-V-~@AV-11 O-V-~@AV-11  1000  TCV  1.915758E+09 
~@V-~@AV-12 I-V-~@AV-12 O-V-~@AV-12  1000  TCV  1.915758E+09 
~@V-~@AV-13 I-V-~@AV-13 O-V-~@AV-13  1000  TCV  1.915758E+09 
~@V-~@AV-14 I-V-~@AV-14 O-V-~@AV-14  1000  TCV  1.915758E+09 
~@V-~@AV-15 I-V-~@AV-15 O-V-~@AV-15  1000  TCV  1.915758E+09 
~@V-~@AV-16 I-V-~@AV-16 O-V-~@AV-16  1000  TCV  1.915758E+09 
~@V-~@AV-17 I-V-~@AV-17 O-V-~@AV-17  1000  TCV  1.915758E+09 
~@V-~@AV-18 I-V-~@AV-18 O-V-~@AV-18  1000  TCV  1.915758E+09 
~@V-~@AV-19 I-V-~@AV-19 O-V-~@AV-19  1000  TCV  1.915758E+09 
~@V-~@AV-2 I-V-~@AV-2 O-V-~@AV-2  1000  TCV  1.915758E+09 
~@V-~@AV-20 I-V-~@AV-20 O-V-~@AV-20  1000  TCV  1.915758E+09 
~@V-~@AV-21 I-V-~@AV-21 O-V-~@AV-21  1000  TCV  1.915758E+09 
~@V-~@AV-22 I-V-~@AV-22 O-V-~@AV-22  1000  TCV  1.915758E+09 
~@V-~@AV-23 I-V-~@AV-23 O-V-~@AV-23  1000  TCV  1.915758E+09 
~@V-~@AV-24 I-V-~@AV-24 O-V-~@AV-24  1000  TCV  1.915758E+09 
~@V-~@AV-25 I-V-~@AV-25 O-V-~@AV-25  1000  TCV  1.915758E+09 
~@V-~@AV-26 I-V-~@AV-26 O-V-~@AV-26  1000  TCV  1.915758E+09 
~@V-~@AV-27 I-V-~@AV-27 O-V-~@AV-27  1000  TCV  1.915758E+09 
~@V-~@AV-28 I-V-~@AV-28 O-V-~@AV-28  1000  TCV  1.915758E+09 
~@V-~@AV-29 I-V-~@AV-29 O-V-~@AV-29  1000  TCV  1.915758E+09 
~@V-~@AV-3 I-V-~@AV-3 O-V-~@AV-3  1000  TCV  1.915758E+09 
~@V-~@AV-30 I-V-~@AV-30 O-V-~@AV-30  1000  TCV  1.915758E+09 
~@V-~@AV-31 I-V-~@AV-31 O-V-~@AV-31  1000  TCV  1.915758E+09 
~@V-~@AV-32 I-V-~@AV-32 O-V-~@AV-32  1000  TCV  1.915758E+09 
~@V-~@AV-33 I-V-~@AV-33 O-V-~@AV-33  1000  TCV  1.915758E+09 
~@V-~@AV-34 I-V-~@AV-34 O-V-~@AV-34  1000  TCV  1.915758E+09 
~@V-~@AV-35 I-V-~@AV-35 O-V-~@AV-35  1000  TCV  1.915758E+09 
~@V-~@AV-36 I-V-~@AV-36 O-V-~@AV-36  1000  TCV  1.915758E+09 
~@V-~@AV-37 I-V-~@AV-37 O-V-~@AV-37  1000  TCV  1.915758E+09 
~@V-~@AV-38 I-V-~@AV-38 O-V-~@AV-38  1000  TCV  1.915758E+09 
~@V-~@AV-39 I-V-~@AV-39 O-V-~@AV-39  1000  TCV  1.915758E+09 
~@V-~@AV-4 I-V-~@AV-4 O-V-~@AV-4  1000  TCV  1.915758E+09 
~@V-~@AV-40 I-V-~@AV-40 O-V-~@AV-40  1000  TCV  1.915758E+09 
~@V-~@AV-41 I-V-~@AV-41 O-V-~@AV-41  1000  TCV  1.915758E+09 
~@V-~@AV-42 I-V-~@AV-42 O-V-~@AV-42  1000  TCV  1.915758E+09 
~@V-~@AV-43 I-V-~@AV-43 O-V-~@AV-43  1000  TCV  1.915758E+09 
~@V-~@AV-44 I-V-~@AV-44 O-V-~@AV-44  1000  TCV  1.915758E+09 
~@V-~@AV-45 I-V-~@AV-45 O-V-~@AV-45  1000  TCV  1.915758E+09 
~@V-~@AV-46 I-V-~@AV-46 O-V-~@AV-46  1000  TCV  1.915758E+09 
~@V-~@AV-47 I-V-~@AV-47 O-V-~@AV-47  1000  TCV  1.915758E+09 
~@V-~@AV-48 I-V-~@AV-48 O-V-~@AV-48  1000  TCV  1.915758E+09 
~@V-~@AV-5 I-V-~@AV-5 O-V-~@AV-5  1000  TCV  1.915758E+09 
~@V-~@AV-6 I-V-~@AV-6 O-V-~@AV-6  1000  TCV  1.915758E+09 
~@V-~@AV-7 I-V-~@AV-7 O-V-~@AV-7  1000  TCV  1.915758E+09 
~@V-~@AV-8 I-V-~@AV-8 O-V-~@AV-8  1000  TCV  1.915758E+09 
~@V-~@AV-9 I-V-~@AV-9 O-V-~@AV-9  1000  TCV  1.915758E+09 

[STATUS]
;--------------------------------------------------------
; Status of selected links at the start of the simulation
;     Link ID         Status
;--------------------------------------------------------

[TIMES]
;------------------------------------------
; EPS parameters
;------------------------------------------
DURATION       0.0001        HOURS
HYDRAULIC TIMESTEP           1             HOURS
PATTERN TIMESTEP             1 
QUALITY TIMESTEP             0.0833333333333333          HOURS


[MIXING]
;-------------------------------------------------------
; Identifies the mixing MODEL (MIXED, 2COMP, FIFO, LIFO)
;-------------------------------------------------------

[OPTIONS]
;-----------------------------------------
; Network properties & simulation options
;-----------------------------------------
MAP           c:\users\amha323\desktop\ky20_v.KYP\ky20_v.MAP
UNITS         GPM
HEADLOSS      H-W
DIFFUSIVITY    0.05 
QUALITY       AGE 
SPECIFIC GRAVITY             1 
TRIALS         50 
ACCURACY       0.0001 
TOLERANCE      0.01 
UNBALANCED    CONTINUE

[CONTROLS]
[PATTERNS]
 2  1 
 11            1 
; End of Demand Patterns: Largest ID used for demand Patterns (MAXPatternID) =  1 
; The Following Patterns Pertain to Quality Parameters
;     (ID specified in pipe2000 water quality data window + MAXPatternID)
;Pump speed change pattern data 

ENRG1  1 
; Reservoir grade change pattern data


[REPORT]
;------------------------------------------
; Output Contents
;------------------------------------------
STATUS        FULL
NODES         ALL
LINKS         ALL
ENERGY        YES
Elevation     YES
Length        YES
Diameter      YES
Setting       YES

[QUALITY]
;------------------------------------------
; Baseline Concentration Data
;------------------------------------------

[SOURCES]
;------------------------------------------
; Baseline Concentration Data
;------------------------------------------

[REACTIONS]
;------------------------------------------
; Reactions Data
;------------------------------------------
GLOBAL BULK    0 
GLOBAL WALL    0 
ORDER BULK     0 
ORDER WALL     0 
ORDER TANK     0 
LIMITING POTENTIAL           0 
ROUGHNESS CORRELATION        0 

[DEMANDS]

[ROUGHNESS]

[VERTICES]
; PipeName, X - coord, Y - coord
;-------------------------------
P-105         4649876.76    3604836.8
P-7           4645620.49    3609536.26

[END]
