[TITLE]
1987 Lansdale WADISO file converted to EPANET - WMG 2/7/93
Major upgrade to 1993 conditions - WMG 3/27/93
Modified 5/93 by Bruce Herwig.
Represents April 1993 sampling study - WMG 12/4/94
Quality added for the initial values of TOTAL CHLORINE - FA 12/19/94
Pattern corrected - FA 12/14/94
Eliminated long source pipes

[JUNCTIONS]
;ID              	Elev        	Demand      	Pattern         
 1               	432.0       	-1.         	14              	;
 2               	335.0       	0.0         	                	;
 3               	236.0       	10.0        	                	;
 4               	231.0       	10.0        	                	;
 5               	240.0       	0           	                	;
 6               	275.0       	0.0         	                	;
 7               	310.0       	0.0         	                	;
 8               	315.0       	3.0         	                	;
 9               	308.0       	3.0         	                	;
 10              	265.0       	3.0         	                	;
 11              	265.0       	3.0         	                	;
 12              	285.0       	3.0         	                	;
 13              	265.        	7.          	                	;
 14              	265.0       	3.0         	                	;
 15              	260.0       	3.0         	                	;
 16              	206.0       	3.0         	                	;
 17              	214.0       	3.0         	                	;
 18              	198.0       	9.0         	                	;
 19              	208.0       	-1.0        	10              	;
 20              	190.0       	9.0         	                	;
 21              	182.0       	1.0         	                	;
 22              	200.0       	9.0         	                	;
 23              	250.0       	9.0         	                	;
 24              	230.0       	9.0         	                	;
 25              	222.0       	9.0         	                	;
 26              	285.0       	3.0         	                	;
 27              	250.0       	0.0         	                	;
 28              	275.0       	34.0        	                	;
 29              	272.0       	5.0         	                	;
 30              	290.0       	5.0         	                	;
 31              	281.0       	28.0        	                	;
 32              	285.0       	5.0         	                	;
 33              	293.0       	11.0        	                	;
 34              	290.0       	25.0        	                	;
 35              	310.0       	5.0         	                	;
 36              	325.0       	30.0        	                	;
 37              	312.0       	3.0         	                	;
 38              	318.0       	4.0         	                	;
 39              	327.0       	9.0         	                	;
 40              	318.0       	9.0         	                	;
 41              	292.0       	29.0        	                	;
 42              	290.0       	0           	                	;
 43              	320.0       	2.0         	                	;
 44              	330.0       	2.0         	                	;
 45              	326.0       	2.0         	                	;
 46              	318.0       	-54.5       	2               	;
 47              	320.0       	2.0         	                	;
 48              	345.0       	12.0        	                	;
 49              	344.0       	5.0         	                	;
 50              	329.0       	5.0         	                	;
 51              	330.0       	5.0         	                	;
 52              	330.0       	-67.4       	2               	;
 53              	332.0       	6.0         	                	;
 54              	324.0       	6.0         	                	;
 55              	320.0       	0           	                	;
 56              	310.0       	5.0         	                	;
 57              	328.0       	33.0        	                	;
 58              	325.0       	14.0        	                	;
 59              	311.0       	0.0         	                	;
 60              	348.0       	14.0        	                	;
 61              	343.0       	28.0        	                	;
 62              	363.0       	10.0        	                	;
 63              	355.0       	7.0         	                	;
 64              	356.0       	7.0         	                	;
 65              	356.0       	15.0        	                	;
 66              	341.0       	12.0        	                	;
 67              	347.0       	9.0         	                	;
 68              	352.0       	5.0         	                	;
 69              	349.0       	5.0         	                	;
 70              	351.0       	5.0         	                	;
 71              	329.0       	2.0         	                	;
 72              	330.0       	2.0         	                	;
 73              	334.0       	29.0        	                	;
 74              	343.0       	-29.5       	2               	;
 75              	352.0       	5.0         	                	;
 76              	352.0       	5.0         	                	;
 77              	382.0       	8.0         	                	;
 85              	383.0       	4.0         	                	;
 87              	385.0       	4.0         	                	;
 88              	380.0       	4.0         	                	;
 89              	372.0       	4.0         	                	;
 143             	374.0       	6.0         	                	;
 144             	372.0       	8.0         	                	;
 145             	372.0       	8.0         	                	;
 146             	369.0       	8.0         	                	;
 147             	355.0       	8.0         	                	;
 148             	349.0       	9.0         	                	;
 150             	353.0       	8.0         	                	;
 151             	365.0       	6.0         	                	;
 152             	364.0       	6.0         	                	;
 153             	358.0       	6.0         	                	;
 154             	358.0       	19.0        	                	;
 155             	362.0       	6.0         	                	;
 156             	360.0       	6.0         	                	;
 157             	358.0       	6.0         	                	;
 158             	365.0       	8.0         	                	;
 159             	360.0       	-1.         	12              	;
 163             	354.0       	10.0        	                	;
 164             	352.0       	6.0         	                	;
 165             	358.0       	15.0        	                	;
 166             	350.0       	4.0         	                	;
 167             	346.0       	4.0         	                	;
 168             	344.0       	4.0         	                	;
 169             	338.0       	4.0         	                	;
 170             	334.0       	4.0         	                	;
 171             	336.0       	5.0         	                	;
 172             	332.0       	5.0         	                	;
 173             	318.0       	23.0        	                	;
 174             	328.0       	5.0         	                	;
 175             	336.0       	5.0         	                	;
 176             	344.0       	92.0        	                	;
 177             	341.0       	5.0         	                	;
 178             	336.0       	5.0         	                	;
 179             	330.0       	4.0         	                	;
 180             	334.0       	4.0         	                	;
 181             	325.0       	4.0         	                	;
 182             	336.0       	7.0         	                	;
 183             	336.0       	4.0         	                	;
 184             	333.0       	4.0         	                	;
 185             	336.0       	7.0         	                	;
 187             	350.0       	10.0        	                	;
 188             	347.0       	7.0         	                	;
 189             	352.0       	28.0        	                	;
 190             	341.0       	10.0        	                	;
 191             	342.0       	5.0         	                	;
 192             	344.0       	5.0         	                	;
 193             	338.0       	4.0         	                	;
 194             	336.0       	4.0         	                	;
 195             	366.0       	7.0         	                	;
 196             	350.0       	23.0        	                	;
 197             	354.0       	60.0        	                	;
 198             	344.0       	28.0        	                	;
 199             	316.0       	5.0         	                	;
 200             	321.0       	3.0         	                	;
 201             	312.0       	3.0         	                	;
 202             	298.0       	3.0         	                	;
 203             	290.0       	3.0         	                	;
 204             	280.0       	3.0         	                	;
 205             	284.0       	-1.0        	11              	;
 206             	276.0       	3.0         	                	;
 207             	304.0       	-62.8       	2               	;
 208             	300.0       	1.0         	                	;
 209             	294.0       	1.0         	                	;
 210             	288.0       	1.0         	                	;
 211             	284.0       	1.0         	                	;
 212             	302.0       	1.0         	                	;
 213             	300.0       	9.0         	                	;
 214             	322.0       	7.0         	                	;
 215             	332.0       	-1.         	15              	;
 216             	357.0       	30.         	                	;
 217             	288.0       	14.0        	                	;
 218             	292.0       	9.0         	                	;
 219             	278.0       	9.0         	                	;
 220             	280.0       	3.0         	                	;
 221             	294.0       	3.0         	                	;
 222             	310.0       	3.0         	                	;
 223             	312.0       	3.0         	                	;
 224             	306.0       	4.0         	                	;
 225             	306.0       	4.0         	                	;
 226             	320.0       	15.0        	                	;
 227             	328.0       	5.0         	                	;
 228             	316.0       	5.0         	                	;
 229             	308.0       	5.0         	                	;
 230             	308.0       	21.0        	                	;
 231             	312.0       	4.0         	                	;
 232             	306.0       	5.0         	                	;
 233             	306.0       	-50.0       	2               	;
 234             	322.0       	5.0         	                	;
 235             	324.0       	5.0         	                	;
 236             	326.0       	5.0         	                	;
 237             	322.0       	0.0         	                	;
 238             	340.0       	5.0         	                	;
 239             	341.0       	1.0         	                	;
 240             	300.0       	225.0       	                	;
 241             	333.0       	5.0         	                	;
 242             	320.0       	0.0         	                	;
 243             	312.0       	4.0         	                	;
 244             	288.0       	2.0         	                	;
 245             	270.0       	2.0         	                	;
 246             	280.0       	-170.0      	4               	;
 247             	282.0       	2.0         	                	;
 248             	302.0       	2.0         	                	;
 249             	328.0       	4.0         	                	;
 250             	282.0       	4.0         	                	;
 251             	324.0       	4.0         	                	;
 252             	278.0       	4.0         	                	;
 253             	268.0       	4.0         	                	;
 254             	280.0       	25.0        	                	;
 255             	260.0       	4.0         	                	;
 256             	319.0       	5.0         	                	;
 257             	321.0       	24.0        	                	;
 258             	342.0       	25.0        	                	;
 259             	256.0       	5.0         	                	;
 260             	240.0       	5.0         	                	;
 261             	210.0       	5.0         	                	;
 262             	226.0       	2.0         	                	;
 263             	202.0       	2.0         	                	;
 264             	244.0       	10.0        	                	;
 265             	266.0       	2.0         	                	;
 266             	242.0       	2.0         	                	;
 267             	220.0       	-279.5      	2               	;
 268             	240.0       	2.0         	                	;
 269             	198.0       	7.0         	                	;
 270             	198.0       	2.0         	                	;
 271             	280.0       	17.0        	                	;
 272             	320.0       	0.0         	                	;
 273             	310.0       	0.0         	                	;
 274             	324.0       	7.0         	                	;
 275             	310.0       	7.0         	                	;
 276             	250.0       	2.0         	                	;
 277             	280.0       	12.0        	                	;
 278             	342.0       	6.0         	                	;
 279             	260.0       	2.0         	                	;
 280             	276.0       	13.0        	                	;
 281             	270.0       	32.0        	                	;
 282             	260.0       	2.0         	                	;
 283             	256.0       	2.0         	                	;
 284             	244.0       	30.0        	                	;
 285             	216.0       	7.0         	                	;
 286             	240.0       	7.0         	                	;
 287             	240.0       	2.0         	                	;
 288             	240.0       	-155.0      	6               	;
 289             	276.0       	2.0         	                	;
 290             	230.0       	2.0         	                	;
 291             	230.0       	7.0         	                	;
 292             	204.0       	-192.2      	3               	;
 293             	340.0       	2.0         	                	;
 294             	322.0       	2.0         	                	;
 295             	320.0       	2.0         	                	;
 296             	318.0       	2.0         	                	;
 297             	298.0       	-208.3      	5               	;
 298             	290.0       	7.0         	                	;
 299             	320.0       	7.0         	                	;
 300             	336.0       	7.0         	                	;
 301             	304.0       	17.0        	                	;
 302             	322.0       	2.0         	                	;
 303             	322.0       	2.0         	                	;
 304             	300.0       	2.0         	                	;
 305             	301.0       	9.0         	                	;
 306             	336.0       	2.0         	                	;
 307             	328.0       	2.0         	                	;
 308             	310.0       	2.0         	                	;
 309             	301.0       	1.0         	                	;
 310             	348.0       	1.0         	                	;
 311             	284.0       	1.0         	                	;
 312             	280.0       	1.0         	                	;
 313             	280.0       	-271.2      	8               	;
 314             	370.0       	1.0         	                	;
 315             	356.0       	1.0         	                	;
 316             	382.0       	1.0         	                	;
 317             	316.0       	1.0         	                	;
 318             	300.0       	1.0         	                	;
 319             	280.0       	-116.7      	6               	;
 320             	322.0       	1.0         	                	;
 321             	328.0       	1.0         	                	;
 322             	318.0       	1.0         	                	;
 323             	284.0       	100.0       	                	;
 324             	260.0       	100.0       	                	;
 325             	264.0       	1.0         	                	;
 326             	342.0       	1.0         	                	;
 327             	344.0       	1.0         	                	;
 328             	362.0       	1.0         	                	;
 329             	362.0       	1.0         	                	;
 330             	354.0       	1.0         	                	;
 331             	344.0       	1.0         	                	;
 332             	342.0       	5.0         	                	;
 334             	372.0       	8.0         	                	;
 335             	378.0       	2.0         	                	;
 336             	384.0       	25.0        	                	;
 337             	428.0       	2.0         	                	;
 428             	282.0       	7.0         	                	;
 429             	282.0       	-50.0       	2               	;
 430             	337.0       	4.0         	                	;
 431             	340.0       	5.0         	                	;
 432             	341.0       	4.0         	                	;
 433             	232.0       	5.0         	                	;
 434             	225.0       	8.0         	                	;
 435             	260.0       	75.0        	                	;
 436             	270.0       	8.0         	                	;
 437             	275.0       	-83.3       	2               	;
 438             	276.0       	0.          	                	;
 439             	343.0       	22.0        	                	;
 440             	330.0       	8.0         	                	;
 441             	282.0       	2.0         	                	;
 444             	340.0       	4.0         	                	;
 445             	370.0       	27.0        	                	;
 446             	264.0       	39.0        	                	;
 447             	275.0       	2.0         	                	;
 448             	270.0       	7.0         	                	;
 449             	342.0       	25.0        	                	;
 450             	341.0       	1.0         	                	;
 453             	335.0       	13.0        	                	;
 454             	290.0       	27.0        	                	;
 455             	356.0       	5.0         	                	;
 457             	299.        	7.          	                	;
 458             	290.        	7.          	                	;
 459             	289.        	7.          	                	;
 460             	328.        	0.          	                	;
 461             	270.        	2.          	                	;
 462             	263.        	2.          	                	;
 463             	265.        	2.          	                	;
 500             	340.        	16.         	                	;
 501             	300.        	5.          	                	;
 502             	330.        	5.          	                	;
 504             	330.        	5.          	                	;
 505             	310.        	5.          	                	;
 506             	300.        	5.          	                	;
 507             	330.        	5.          	                	;
 508             	330.        	5.          	                	;
 509             	320.        	5.          	                	;
 510             	320.        	5.          	                	;
 591             	444.        	1.0         	13              	;
 615             	350.        	10.         	                	;
 616             	280.        	10.         	                	;
 617             	250.        	4.          	                	;
 618             	275.        	4.          	                	;
 619             	280.        	4.          	                	;
 620             	240.        	4.          	                	;
 621             	250.        	4.          	                	;
 622             	230.        	4.          	                	;
 623             	240.        	4.          	                	;
 624             	250.        	-213.9      	7               	;
 625             	200.        	230.        	                	;
 626             	260.        	4.          	                	;
 627             	250.        	4.          	                	;
 628             	260.        	4.          	                	;
 629             	260.        	4.          	                	;
 630             	320.        	150.        	                	;
 634             	200.        	0           	                	;
 635             	428.        	-86.3       	9               	;
 636             	327.        	0           	                	;
 637             	309.        	0           	                	;
 638             	315.        	0           	                	;
 639             	277.        	0           	                	;
 640             	350.        	0.          	                	;
 641             	315.        	0.          	                	;
 700             	336.        	0           	                	;

[RESERVOIRS]
;ID              	Head        	Pattern         

[TANKS]
;ID              	Elevation   	InitLevel   	MinLevel    	MaxLevel    	Diameter    	MinVol      	VolCurve        	Overflow
 186             	444.        	29.0        	0.          	42.         	100.        	0           	                	;2 mg elevated tank
 338             	444.        	32.6        	0.          	42.         	66.         	0           	                	;lawn ave tank

[PIPES]
;ID              	Node1           	Node2           	Length      	Diameter    	Roughness   	MinorLoss   	Status
 1               	1               	2               	4005        	16          	120         	0           	Open  	;
 2               	2               	3               	4805.2      	16          	120         	0           	Open  	;
 3               	5               	4               	848.5       	12          	120         	0           	Open  	;
 4               	4               	3               	1900        	12          	120         	0           	Open  	;
 5               	3               	6               	1603.1      	16          	120         	0           	Open  	;
 6               	6               	7               	2012.5      	16          	120         	0           	Open  	;
 7               	7               	8               	3000        	16          	120         	0           	Open  	;
 8               	8               	9               	800         	16          	120         	0           	Open  	;
 9               	9               	10              	2100        	12          	120         	0           	Open  	;
 10              	10              	11              	2100        	12          	120         	0           	Open  	;
 11              	9               	12              	1236.9      	12          	120         	0           	Open  	;
 12              	10              	15              	1802.8      	8           	120         	0           	Open  	;
 13              	14              	15              	538.5       	12          	120         	0           	Open  	;
 14              	15              	16              	500         	12          	120         	0           	Open  	;
 15              	11              	17              	1708.8      	12          	120         	0           	Open  	;
 16              	17              	16              	1118        	12          	120         	0           	Open  	;
 17              	16              	24              	1769.2      	12          	120         	0           	Open  	;
 18              	24              	25              	640.3       	12          	120         	0           	Open  	;
 19              	25              	26              	1746.4      	8           	100         	0           	Open  	;
 20              	26              	27              	1612.5      	8           	120         	0           	Open  	;
 21              	27              	28              	1100        	12          	120         	0           	Open  	;
 22              	27              	29              	900         	12          	120         	0           	Open  	;
 23              	26              	30              	1726.3      	8           	100         	0           	Open  	;
 24              	30              	29              	1700        	16          	120         	0           	Open  	;
 25              	31              	30              	2700        	16          	120         	0           	Open  	;
 26              	438             	31              	1500        	12          	120         	0           	Open  	;
 27              	31              	32              	2900        	16          	120         	0           	Open  	;
 28              	32              	33              	1702.9      	12          	120         	0           	Open  	;
 29              	33              	34              	707.1       	6           	120         	0           	Open  	;
 30              	33              	256             	2701.9      	12          	120         	0           	Open  	;
 31              	17              	18              	984.9       	12          	120         	0           	Open  	;
 32              	19              	18              	509.9       	6           	120         	0           	Open  	;
 33              	18              	20              	2109.5      	12          	120         	0           	Open  	;
 34              	20              	21              	1000        	8           	120         	0           	Open  	;
 35              	20              	22              	1802.8      	12          	120         	0           	Open  	;
 36              	17              	23              	1300        	8           	120         	0           	Open  	;
 37              	23              	22              	2901.7      	8           	120         	0           	Open  	;
 38              	22              	433             	1500        	12          	120         	0           	Open  	;
 39              	618             	436             	1800        	12          	120         	0           	Open  	;
 40              	436             	435             	800         	12          	120         	0           	Open  	;
 41              	435             	434             	800         	12          	120         	0           	Open  	;
 42              	434             	433             	2282.5      	12          	120         	0           	Open  	;
 43              	433             	32              	3000        	12          	120         	0           	Open  	;
 44              	29              	38              	2800        	12          	100         	0           	Open  	;
 45              	30              	35              	1118        	10          	100         	0           	Open  	;
 46              	35              	36              	1612.5      	8           	100         	0           	Open  	;
 47              	36              	37              	700         	8           	120         	0           	Open  	;
 48              	37              	38              	1403.6      	8           	120         	0           	Open  	;
 49              	38              	39              	1800        	12          	100         	0           	Open  	;
 50              	37              	453             	948.7       	8           	120         	0           	Open  	;
 51              	39              	40              	2100        	8           	120         	0           	Open  	;
 52              	39              	48              	900         	12          	100         	0           	Open  	;
 53              	48              	49              	500         	12          	100         	0           	Open  	;
 54              	48              	47              	1664.3      	8           	120         	0           	Open  	;
 55              	41              	40              	900         	8           	120         	0           	Open  	;
 56              	42              	41              	316.2       	6           	120         	0           	Open  	;
 57              	41              	43              	1118        	8           	120         	0           	Open  	;
 58              	47              	43              	538.5       	8           	120         	0           	Open  	;
 59              	43              	44              	860.2       	6           	120         	0           	Open  	;
 60              	45              	43              	412.3       	8           	120         	0           	Open  	;
 61              	46              	45              	300         	6           	120         	0           	Open  	;
 62              	45              	73              	1044        	8           	120         	0           	Open  	;
 63              	47              	71              	1334.2      	6           	120         	0           	Open  	;
 64              	74              	73              	360.6       	8           	120         	0           	Open  	;
 65              	73              	72              	400         	8           	120         	0           	Open  	;
 66              	72              	71              	300         	8           	120         	0           	Open  	;
 67              	71              	70              	1100        	6           	100         	0           	Open  	;
 68              	70              	69              	400         	8           	100         	0           	Open  	;
 69              	49              	69              	1300        	8           	100         	0           	Open  	;
 70              	69              	68              	900         	6           	100         	0           	Open  	;
 71              	68              	67              	400         	6           	100         	0           	Open  	;
 72              	51              	67              	600         	6           	100         	0           	Open  	;
 73              	52              	51              	200         	6           	100         	0           	Open  	;
 74              	51              	50              	300         	6           	100         	0           	Open  	;
 75              	49              	50              	900         	8           	100         	0           	Open  	;
 76              	50              	53              	1000        	8           	100         	0           	Open  	;
 77              	53              	54              	509.9       	6           	120         	0           	Open  	;
 78              	55              	54              	223.6       	6           	120         	0           	Open  	;
 79              	54              	56              	1000        	6           	120         	0           	Open  	;
 80              	53              	57              	1104.5      	8           	100         	0           	Open  	;
 81              	57              	58              	300         	8           	100         	0           	Open  	;
 82              	58              	59              	2500        	6           	120         	0           	Open  	;
 83              	58              	60              	700         	8           	100         	0           	Open  	;
 84              	60              	61              	800         	8           	100         	0           	Open  	;
 85              	61              	77              	2302.2      	8           	100         	0           	Open  	;
 86              	77              	85              	700         	8           	100         	0           	Open  	;
 87              	85              	87              	282.8       	8           	100         	0           	Open  	;
 88              	87              	88              	500         	8           	100         	0           	Open  	;
 90              	88              	89              	905.5       	8           	100         	0           	Open  	;
 92              	61              	62              	900         	8           	100         	0           	Open  	;
 93              	62              	63              	700         	8           	100         	0           	Open  	;
 94              	63              	64              	100         	8           	100         	0           	Open  	;
 95              	64              	65              	300         	4           	100         	0           	Open  	;
 96              	66              	65              	800         	4           	100         	0           	Open  	;
 97              	57              	66              	1000        	4           	100         	0           	Open  	;
 98              	148             	66              	1600        	4           	100         	0           	Open  	;
 99              	67              	148             	500         	4           	100         	0           	Open  	;
 100             	65              	76              	1600        	4           	100         	0           	Open  	;
 101             	76              	75              	600         	4           	100         	0           	Open  	;
 102             	75              	70              	800         	6           	100         	0           	Open  	;
 103             	70              	189             	1100        	8           	100         	0           	Open  	;
 104             	189             	182             	316.2       	8           	100         	0           	Open  	;
 105             	183             	182             	1300        	16          	120         	0           	Open  	;
 106             	184             	183             	200         	16          	120         	0           	Open  	;
 107             	185             	184             	600         	16          	120         	0           	Open  	;
 108             	186             	700             	300         	12          	120         	0           	Open  	;
 109             	185             	187             	806.2       	12          	120         	0           	Open  	;
 110             	187             	188             	600         	12          	120         	0           	Open  	;
 111             	64              	188             	1200        	12          	120         	0           	Open  	;
 112             	188             	163             	350         	12          	120         	0           	Open  	;
 113             	159             	163             	800         	12          	120         	0           	Open  	;
 116             	159             	158             	854.4       	8           	100         	0           	Open  	;
 117             	158             	144             	800         	4           	100         	0           	Open  	;
 118             	143             	144             	300         	6           	100         	0           	Open  	;
 119             	144             	145             	300         	6           	100         	0           	Open  	;
 120             	145             	146             	600         	6           	100         	0           	Open  	;
 121             	146             	147             	1400        	6           	100         	0           	Open  	;
 122             	147             	150             	905.5       	6           	100         	0           	Open  	;
 123             	150             	151             	728         	6           	100         	0           	Open  	;
 124             	151             	152             	300         	8           	100         	0           	Open  	;
 125             	146             	156             	1500        	4           	100         	0           	Open  	;
 126             	157             	156             	900         	8           	100         	0           	Open  	;
 127             	156             	155             	500         	8           	100         	0           	Open  	;
 128             	155             	154             	600         	8           	100         	0           	Open  	;
 129             	163             	164             	282.8       	16          	120         	0           	Open  	;
 130             	164             	165             	1200        	16          	120         	0           	Open  	;
 131             	165             	154             	800         	16          	120         	0           	Open  	;
 132             	165             	166             	700         	4           	100         	0           	Open  	;
 133             	166             	167             	600         	4           	100         	0           	Open  	;
 134             	167             	168             	200         	4           	100         	0           	Open  	;
 135             	154             	168             	700         	8           	100         	0           	Open  	;
 136             	154             	153             	1000        	16          	120         	0           	Open  	;
 137             	153             	152             	509.9       	16          	120         	0           	Open  	;
 138             	168             	169             	300         	8           	100         	0           	Open  	;
 139             	430             	170             	500         	4           	100         	0           	Open  	;
 140             	166             	432             	900         	4           	100         	0           	Open  	;
 141             	432             	430             	500         	4           	100         	0           	Open  	;
 142             	169             	439             	400         	8           	100         	0           	Open  	;
 143             	439             	171             	1000        	8           	100         	0           	Open  	;
 144             	171             	172             	400         	8           	100         	0           	Open  	;
 145             	172             	235             	1902.6      	8           	100         	0           	Open  	;
 146             	227             	235             	400         	8           	100         	0           	Open  	;
 147             	228             	234             	1253        	6           	100         	0           	Open  	;
 148             	234             	235             	200         	6           	100         	0           	Open  	;
 149             	232             	234             	1303.8      	6           	100         	0           	Open  	;
 150             	233             	232             	316.2       	6           	100         	0           	Open  	;
 151             	232             	229             	509.9       	6           	100         	0           	Open  	;
 152             	173             	172             	1300        	8           	100         	0           	Open  	;
 153             	174             	173             	900         	8           	100         	0           	Open  	;
 154             	175             	174             	300         	6           	100         	0           	Open  	;
 155             	177             	175             	700         	6           	100         	0           	Open  	;
 156             	178             	177             	400         	6           	100         	0           	Open  	;
 157             	179             	178             	400         	6           	100         	0           	Open  	;
 158             	180             	179             	600         	6           	100         	0           	Open  	;
 159             	181             	180             	900         	6           	100         	0           	Open  	;
 160             	190             	180             	900         	6           	100         	0           	Open  	;
 161             	189             	190             	800         	8           	100         	0           	Open  	;
 162             	193             	192             	2100        	8           	100         	0           	Open  	;
 163             	194             	193             	200         	16          	120         	0           	Open  	;
 164             	182             	194             	200         	16          	120         	0           	Open  	;
 165             	182             	181             	600         	8           	100         	0           	Open  	;
 166             	181             	173             	2039.6      	8           	100         	0           	Open  	;
 167             	181             	440             	1300        	4           	100         	0           	Open  	;
 168             	440             	431             	900         	6           	100         	0           	Open  	;
 169             	431             	430             	200         	4           	100         	0           	Open  	;
 170             	231             	230             	2701.9      	12          	120         	0           	Open  	;
 171             	230             	229             	1513.3      	12          	120         	0           	Open  	;
 172             	229             	228             	300         	12          	120         	0           	Open  	;
 173             	228             	227             	1315.3      	12          	120         	0           	Open  	;
 174             	226             	227             	1702.9      	12          	100         	0           	Open  	;
 175             	225             	226             	1300        	12          	120         	0           	Open  	;
 176             	224             	225             	500         	12          	120         	0           	Open  	;
 177             	637             	231             	1500        	12          	120         	0           	Open  	;
 178             	224             	221             	800         	12          	120         	0           	Open  	;
 179             	221             	220             	800         	12          	120         	0           	Open  	;
 180             	222             	221             	1005        	8           	120         	0           	Open  	;
 181             	223             	222             	900         	8           	120         	0           	Open  	;
 182             	200             	223             	2002.5      	12          	120         	0           	Open  	;
 183             	201             	200             	2549.5      	12          	120         	0           	Open  	;
 184             	202             	201             	948.7       	8           	120         	0           	Open  	;
 185             	207             	202             	728         	6           	120         	0           	Open  	;
 186             	203             	202             	608.3       	8           	120         	0           	Open  	;
 187             	204             	203             	707.1       	12          	120         	0           	Open  	;
 188             	205             	204             	300         	24          	120         	0           	Open  	;
 189             	203             	206             	1118        	8           	120         	0           	Open  	;
 190             	201             	208             	1118        	12          	120         	0           	Open  	;
 191             	208             	209             	1140.2      	12          	120         	0           	Open  	;
 192             	208             	210             	316.2       	12          	120         	0           	Open  	;
 193             	210             	211             	500         	12          	120         	0           	Open  	;
 194             	211             	212             	943.4       	16          	120         	0           	Open  	;
 195             	212             	213             	1208.3      	12          	120         	0           	Open  	;
 196             	212             	214             	943.4       	16          	120         	0           	Open  	;
 197             	510             	217             	2700.0      	12          	120         	0           	Open  	;
 198             	217             	218             	538.5       	12          	120         	0           	Open  	;
 199             	218             	219             	500         	12          	120         	0           	Open  	;
 200             	214             	215             	3420.5      	16          	120         	0           	Open  	;
 201             	500             	215             	1700.0      	24          	120         	0           	Open  	;
 202             	200             	198             	900         	16          	120         	0           	Open  	;
 203             	198             	199             	2630.6      	12          	120         	0           	Open  	;
 204             	197             	198             	3634.6      	16          	120         	0           	Open  	;
 205             	195             	197             	1400        	16          	120         	0           	Open  	;
 206             	195             	196             	400         	12          	120         	0           	Open  	;
 207             	152             	195             	1300        	16          	120         	0           	Open  	;
 208             	176             	175             	1100        	6           	100         	0           	Open  	;
 209             	192             	176             	2502        	6           	100         	0           	Open  	;
 210             	190             	455             	700         	8           	100         	0           	Open  	;
 211             	191             	192             	100         	8           	100         	0           	Open  	;
 212             	192             	236             	3701.4      	16          	120         	0           	Open  	;
 213             	236             	238             	2102.4      	16          	120         	0           	Open  	;
 214             	238             	241             	600         	16          	120         	0           	Open  	;
 215             	241             	239             	1100        	12          	120         	0           	Open  	;
 216             	239             	240             	2000        	12          	120         	0           	Open  	;
 217             	237             	236             	200         	6           	120         	0           	Open  	;
 218             	241             	242             	806.2       	8           	120         	0           	Open  	;
 219             	242             	243             	1200        	16          	120         	0           	Open  	;
 220             	243             	244             	608.3       	16          	120         	0           	Open  	;
 221             	244             	245             	1264.9      	16          	120         	0           	Open  	;
 222             	246             	245             	300         	6           	120         	0           	Open  	;
 223             	245             	247             	1019.8      	16          	120         	0           	Open  	;
 224             	247             	248             	1726.3      	8           	100         	0           	Open  	;
 225             	248             	249             	2508        	8           	100         	0           	Open  	;
 226             	249             	250             	2906.9      	8           	120         	0           	Open  	;
 227             	250             	251             	1811.1      	8           	120         	0           	Open  	;
 228             	251             	252             	1603.1      	12          	120         	0           	Open  	;
 229             	250             	253             	1236.9      	8           	120         	0           	Open  	;
 230             	253             	254             	412.3       	8           	120         	0           	Open  	;
 231             	255             	253             	670.8       	8           	120         	0           	Open  	;
 232             	256             	255             	2807.1      	8           	120         	0           	Open  	;
 233             	256             	257             	200         	12          	120         	0           	Open  	;
 234             	257             	258             	600         	12          	120         	0           	Open  	;
 235             	257             	454             	2102.4      	12          	120         	0           	Open  	;
 236             	259             	260             	1400        	12          	120         	0           	Open  	;
 237             	259             	261             	1414.2      	12          	120         	0           	Open  	;
 238             	270             	269             	1029.6      	16          	120         	0           	Open  	;
 239             	269             	261             	1800        	16          	120         	0           	Open  	;
 240             	261             	262             	1500        	16          	120         	0           	Open  	;
 241             	262             	264             	1300        	16          	120         	0           	Open  	;
 242             	264             	265             	1303.8      	12          	120         	0           	Open  	;
 243             	264             	266             	1081.7      	16          	100         	0           	Open  	;
 244             	267             	266             	282.8       	6           	120         	0           	Open  	;
 245             	266             	268             	500         	16          	100         	0           	Open  	;
 246             	268             	441             	1931.3      	16          	100         	0           	Open  	;
 247             	247             	441             	1627.9      	16          	120         	0           	Open  	;
 248             	441             	320             	3111.3      	16          	120         	0           	Open  	;
 249             	262             	263             	1303.8      	12          	120         	0           	Open  	;
 250             	617             	270             	3200.0      	12          	120         	0           	Open  	;
 251             	272             	271             	1345.4      	8           	120         	0           	Open  	;
 252             	273             	272             	3157.5      	8           	120         	0           	Open  	;
 253             	274             	273             	1414.2      	8           	120         	0           	Open  	;
 254             	275             	274             	1005        	8           	100         	0           	Open  	;
 255             	300             	275             	1341.6      	8           	100         	0           	Open  	;
 256             	298             	300             	1902.6      	8           	100         	0           	Open  	;
 257             	428             	298             	1431.8      	8           	120         	0           	Open  	;
 258             	429             	428             	200         	8           	120         	0           	Open  	;
 259             	428             	280             	2418.7      	8           	120         	0           	Open  	;
 260             	281             	280             	1403.6      	8           	120         	0           	Open  	;
 261             	280             	279             	1216.6      	8           	120         	0           	Open  	;
 262             	279             	276             	1500        	8           	120         	0           	Open  	;
 263             	446             	275             	2473.9      	8           	120         	0           	Open  	;
 264             	276             	271             	5016        	12          	120         	0           	Open  	;
 265             	277             	276             	943.4       	12          	120         	0           	Open  	;
 266             	278             	277             	3200        	12          	120         	0           	Open  	;
 267             	282             	278             	1802.8      	8           	120         	0           	Open  	;
 268             	282             	281             	400         	8           	120         	0           	Open  	;
 269             	283             	282             	1711.7      	12          	120         	0           	Open  	;
 270             	284             	283             	905.5       	12          	120         	0           	Open  	;
 271             	285             	284             	905.5       	12          	120         	0           	Open  	;
 272             	286             	285             	1253        	12          	120         	0           	Open  	;
 273             	287             	286             	223.6       	8           	120         	0           	Open  	;
 274             	288             	287             	300         	6           	120         	0           	Open  	;
 275             	287             	289             	781         	12          	120         	0           	Open  	;
 276             	289             	290             	1500        	12          	120         	0           	Open  	;
 277             	291             	290             	1403.6      	8           	120         	0           	Open  	;
 278             	292             	291             	316.2       	6           	120         	0           	Open  	;
 279             	291             	286             	2213.6      	8           	120         	0           	Open  	;
 280             	293             	447             	2300        	8           	120         	0           	Open  	;
 281             	294             	293             	800         	8           	120         	0           	Open  	;
 282             	296             	298             	1118        	8           	100         	0           	Open  	;
 283             	297             	296             	412.3       	8           	120         	0           	Open  	;
 284             	296             	295             	500         	8           	100         	0           	Open  	;
 285             	295             	294             	824.6       	8           	120         	0           	Open  	;
 286             	307             	293             	1280.6      	8           	120         	0           	Open  	;
 287             	306             	307             	600         	8           	120         	0           	Open  	;
 288             	298             	299             	1627.9      	12          	120         	0           	Open  	;
 289             	295             	301             	1000        	8           	120         	0           	Open  	;
 290             	302             	301             	1000        	8           	120         	0           	Open  	;
 291             	302             	294             	824.6       	8           	120         	0           	Open  	;
 292             	303             	302             	300         	8           	120         	0           	Open  	;
 293             	304             	303             	1063        	8           	120         	0           	Open  	;
 294             	305             	306             	1303.8      	12          	120         	0           	Open  	;
 295             	304             	305             	800         	12          	120         	0           	Open  	;
 296             	308             	304             	500         	12          	120         	0           	Open  	;
 297             	309             	308             	1700        	12          	120         	0           	Open  	;
 298             	310             	309             	2816        	12          	120         	0           	Open  	;
 299             	311             	310             	1300        	12          	120         	0           	Open  	;
 300             	312             	311             	640.3       	16          	120         	0           	Open  	;
 301             	313             	312             	223.6       	6           	120         	0           	Open  	;
 302             	314             	312             	1431.8      	8           	120         	0           	Open  	;
 303             	315             	314             	800         	8           	120         	0           	Open  	;
 304             	316             	315             	900         	8           	120         	0           	Open  	;
 305             	317             	316             	3006.7      	8           	120         	0           	Open  	;
 306             	318             	317             	1019.8      	8           	120         	0           	Open  	;
 307             	319             	318             	200         	8           	120         	0           	Open  	;
 308             	320             	321             	2360.1      	12          	120         	0           	Open  	;
 309             	321             	322             	583.1       	12          	120         	0           	Open  	;
 310             	322             	323             	2302.2      	12          	120         	0           	Open  	;
 311             	322             	324             	1280.6      	12          	120         	0           	Open  	;
 312             	324             	325             	1838.5      	12          	120         	0           	Open  	;
 313             	450             	326             	4100        	16          	120         	0           	Open  	;
 314             	326             	327             	707.1       	16          	120         	0           	Open  	;
 315             	327             	328             	3200        	16          	120         	0           	Open  	;
 316             	328             	334             	900         	16          	120         	0           	Open  	;
 317             	334             	337             	2901.7      	16          	120         	0           	Open  	;
 319             	334             	335             	300         	16          	120         	0           	Open  	;
 320             	335             	336             	900         	16          	120         	0           	Open  	;
 321             	328             	329             	223.6       	12          	120         	0           	Open  	;
 322             	329             	330             	500         	12          	120         	0           	Open  	;
 323             	330             	331             	640.3       	12          	120         	0           	Open  	;
 324             	331             	332             	2109.5      	12          	120         	0           	Open  	;
 326             	337             	591             	781         	16          	120         	0           	Open  	;
 327             	170             	171             	400         	4           	100         	0           	Open  	;
 328             	158             	157             	700         	8           	100         	0           	Open  	;
 525             	226             	444             	1897.4      	8           	100         	0           	Open  	;
 526             	278             	445             	2700        	12          	120         	0           	Open  	;
 527             	276             	446             	1552.4      	8           	120         	0           	Open  	;
 528             	447             	448             	1200        	8           	120         	0           	Open  	;
 529             	447             	282             	1200        	8           	120         	0           	Open  	;
 530             	320             	450             	2500        	16          	120         	0           	Open  	;
 531             	450             	449             	2600        	8           	100         	0           	Open  	;
 534             	453             	40              	1077        	8           	120         	0           	Open  	;
 535             	454             	259             	2502        	12          	120         	0           	Open  	;
 536             	455             	191             	700         	8           	120         	0           	Open  	;
 537             	455             	73              	800         	6           	120         	0           	Open  	;
 542             	268             	248             	2400        	8           	120         	0           	Open  	;
 543             	12              	13              	900         	12          	120         	0           	Open  	;
 544             	13              	14              	950         	12          	120         	0           	Open  	;
 545             	438             	457             	600         	12          	120         	0           	Open  	;
 546             	457             	255             	2200        	8           	120         	0           	Open  	;
 547             	457             	458             	600         	12          	120         	0           	Open  	;
 548             	458             	36              	1850        	8           	120         	0           	Open  	;
 549             	458             	459             	2950        	12          	120         	0           	Open  	;
 550             	459             	41              	2150        	8           	120         	0           	Open  	;
 551             	460             	636             	2100        	12          	120         	0           	Open  	;
 552             	192             	460             	1100        	16          	120         	0           	Open  	;
 553             	28              	461             	750         	12          	120         	0           	Open  	;
 554             	461             	462             	950         	12          	120         	0           	Open  	;
 555             	462             	463             	450         	12          	120         	0           	Open  	;
 556             	463             	25              	750         	12          	120         	0           	Open  	;
 597             	338             	591             	50          	16          	120         	0           	Open  	;
 600             	501             	638             	1000        	24          	120         	0           	Open  	;
 602             	502             	504             	600         	24          	120         	0           	Open  	;
 603             	504             	219             	5300        	16          	120         	0           	Open  	;
 604             	218             	505             	3000        	8           	120         	0           	Open  	;
 605             	505             	502             	1700        	8           	120         	0           	Open  	;
 606             	505             	506             	800         	8           	120         	0           	Open  	;
 607             	506             	509             	700         	8           	120         	0           	Open  	;
 608             	509             	510             	2800        	8           	120         	0           	Open  	;
 609             	509             	507             	2400        	8           	120         	0           	Open  	;
 610             	506             	507             	1600        	8           	120         	0           	Open  	;
 611             	507             	508             	400         	8           	120         	0           	Open  	;
 612             	501             	508             	2000        	8           	120         	0           	Open  	;
 613             	508             	215             	1200        	8           	120         	0           	Open  	;
 614             	510             	214             	800         	12          	120         	0           	Open  	;
 615             	337             	635             	300         	12          	120         	0           	Open  	;
 616             	219             	220             	500         	12          	120         	0           	Open  	;
 711             	445             	615             	4000        	16          	120         	0           	Open  	;
 712             	615             	616             	5000        	16          	120         	0           	Open  	;
 713             	271             	617             	800         	12          	120         	0           	Open  	;
 714             	617             	619             	4000        	16          	120         	0           	Open  	;
 715             	619             	620             	9000        	16          	120         	0           	Open  	;
 716             	619             	639             	4000        	16          	120         	0           	Open  	;
 717             	618             	437             	300         	12          	120         	0           	Open  	;
 718             	620             	623             	2400        	8           	120         	0           	Open  	;
 719             	620             	624             	800         	12          	120         	0           	Open  	;
 720             	620             	621             	500         	12          	120         	0           	Open  	;
 721             	621             	622             	2400        	12          	120         	0           	Open  	;
 722             	622             	623             	1000        	8           	120         	0           	Open  	;
 723             	623             	625             	1500        	8           	120         	0           	Open  	;
 724             	625             	626             	2400        	8           	120         	0           	Open  	;
 725             	626             	627             	4800        	12          	120         	0           	Open  	;
 726             	627             	628             	4000        	8           	120         	0           	Open  	;
 727             	628             	629             	1200        	12          	120         	0           	Open  	;
 728             	629             	634             	3200        	8           	120         	0           	Open  	;
 729             	176             	630             	1400        	6           	120         	0           	Open  	;
 730             	174             	630             	1700        	6           	120         	0           	Open  	;
 734             	501             	500             	2000        	24          	120         	0           	Open  	;
 735             	216             	500             	1200        	16          	120         	0           	Open  	;
 736             	270             	639             	3050        	16          	120         	0           	Open  	;
 737             	243             	252             	1500        	12          	120         	0           	Open  	;
 738             	251             	636             	1900        	12          	120         	0           	Open  	;
 739             	44              	636             	1400        	8           	120         	0           	Open  	;
 740             	636             	459             	1200        	12          	120         	0           	Open  	;
 741             	637             	224             	1100        	12          	120         	0           	Open  	;
 742             	196             	640             	10          	6           	120         	0           	Open  	;
 743             	641             	638             	50          	6           	120         	0           	Open  	;
 744             	502             	638             	900         	24          	120         	0           	Open  	;
 745             	229             	637             	2850        	12          	120         	0           	Open  	;
 746             	639             	618             	4000        	16          	120         	0           	Open  	;
 747             	700             	185             	428         	12          	120         	0           	Open  	;

[PUMPS]
;ID              	Node1           	Node2           	Parameters

[VALVES]
;ID              	Node1           	Node2           	Diameter    	Type	Setting     	MinorLoss   

[TAGS]

[DEMANDS]
;Junction        	Demand      	Pattern         	Category

[STATUS]
;ID              	Status/Setting

[PATTERNS]
;ID              	Multipliers
;
 1               	0.293       	0.199       	0.312       	0.506       	0.588       	1.294       
 1               	2.074       	1.581       	1.741       	1.698       	1.626       	1.566       
 1               	1.388       	1.301       	1.480       	1.198       	1.105       	1.153       
 1               	1.269       	1.426       	1.283       	1.103       	1.065       	0.856       
 1               	0.683       	0.613       	0.701       	0.501       	0.507       	1.140       
 1               	1.977       	1.605       	1.499       	1.511       	1.372       	1.266       
;
 2               	1.00        	1.00        	1.00        	1.00        	1.00        	1.00        
 2               	1.00        	1.00        	1.00        	1.00        	1.00        	1.00        
 2               	1.00        	1.00        	1.00        	1.00        	1.00        	1.00        
 2               	1.00        	1.00        	1.00        	1.00        	1.00        	1.00        
 2               	1.00        	1.00        	1.00        	1.00        	1.00        	1.00        
 2               	1.00        	1.00        	1.00        	1.00        	1.00        	1.00        
;
 3               	0.00        	0.00        	0.00        	0.00        	0.00        	0.00        
 3               	1.00        	1.00        	1.00        	1.00        	1.00        	1.00        
 3               	1.00        	1.00        	1.00        	1.00        	1.00        	1.00        
 3               	1.00        	1.00        	1.00        	1.00        	0.00        	0.00        
 3               	0.00        	0.00        	0.00        	0.00        	0.00        	0.00        
 3               	1.00        	1.00        	1.00        	1.00        	1.00        	1.00        
;
 4               	0.00        	0.00        	0.00        	0.00        	0.00        	0.00        
 4               	1.00        	1.00        	1.00        	1.00        	1.00        	1.00        
 4               	1.00        	1.00        	1.00        	1.00        	1.00        	1.00        
 4               	1.00        	1.00        	1.00        	0.00        	0.00        	0.00        
 4               	0.00        	0.00        	0.00        	0.00        	0.00        	0.00        
 4               	1.00        	1.00        	1.00        	1.00        	1.00        	1.00        
;
 5               	0.00        	0.00        	0.00        	0.00        	0.00        	0.00        
 5               	0.00        	1.00        	1.00        	1.00        	1.00        	1.00        
 5               	1.00        	1.00        	1.00        	1.00        	0.00        	0.00        
 5               	0.00        	0.00        	0.00        	0.00        	0.00        	0.00        
 5               	0.00        	0.00        	0.00        	0.00        	0.00        	0.00        
 5               	0.00        	1.00        	1.00        	1.00        	1.00        	1.00        
;
 6               	0.00        	0.00        	0.00        	0.00        	0.00        	0.00        
 6               	0.00        	1.00        	1.00        	1.00        	1.00        	1.00        
 6               	1.00        	1.00        	1.00        	1.00        	1.00        	0.00        
 6               	0.00        	0.00        	0.00        	0.00        	0.00        	0.00        
 6               	0.00        	0.00        	0.00        	0.00        	0.00        	0.00        
 6               	0.00        	1.00        	1.00        	1.00        	1.00        	1.00        
;
 7               	0.00        	0.00        	0.00        	0.00        	0.00        	0.00        
 7               	0.00        	0.00        	1.00        	1.00        	1.00        	1.00        
 7               	1.00        	1.00        	1.00        	1.00        	1.00        	0.00        
 7               	0.00        	0.00        	0.00        	0.00        	0.00        	0.00        
 7               	0.00        	0.00        	0.00        	0.00        	0.00        	0.00        
 7               	0.00        	0.00        	1.00        	1.00        	1.00        	1.00        
;
 8               	0.00        	0.00        	0.00        	0.00        	0.00        	0.00        
 8               	0.00        	0.00        	0.00        	0.00        	0.00        	0.00        
 8               	0.00        	0.00        	1.00        	1.00        	1.00        	1.00        
 8               	1.00        	1.00        	1.00        	1.00        	1.00        	1.00        
 8               	1.00        	1.00        	1.00        	0.00        	0.00        	0.00        
 8               	0.00        	0.00        	0.00        	0.00        	0.00        	0.00        
;
 9               	0.00        	0.00        	0.00        	0.00        	0.00        	0.00        
 9               	0.00        	0.00        	1.00        	1.00        	1.00        	1.00        
 9               	1.00        	1.00        	1.00        	1.00        	1.00        	1.00        
 9               	1.00        	1.00        	1.00        	1.00        	0.00        	0.00        
 9               	0.00        	0.00        	0.00        	0.00        	0.00        	0.00        
 9               	0.00        	0.00        	1.00        	1.00        	1.00        	1.00        
;
 10              	404.        	141.        	0.00        	0.00        	0.00        	0.00        
 10              	0.00        	0.00        	357.        	416.        	413.        	413.        
 10              	412.        	409.        	410.        	411.        	410.        	410.        
 10              	411.        	411.        	413.        	409.        	406.        	405.        
 10              	402.        	401.        	400.        	399.        	397.        	398.        
 10              	402.        	59.         	00.0        	00.0        	0.00        	0.00        
;
 11              	0.00        	0.00        	0.00        	0.00        	0.00        	0.00        
 11              	0.00        	0.00        	267.        	294.        	283.        	48.         
 11              	0.00        	54.         	304.        	298.        	295.        	294.        
 11              	293.        	292.        	292.        	291.        	291.        	290.        
 11              	288.        	285.        	282.        	281.        	279.        	279.        
 11              	280.        	42.         	0.00        	0.00        	0.00        	0.00        
;
 12              	0.00        	0.00        	0.00        	0.00        	0.00        	0.00        
 12              	448.        	448.        	448.        	448.        	448.        	448.        
 12              	0.00        	0.00        	0.00        	0.00        	0.00        	448.        
 12              	448.        	448.        	448.        	0.00        	0.00        	0.00        
 12              	0.00        	0.00        	0.00        	0.00        	0.00        	0.00        
 12              	600.        	600.        	600.        	600.        	600.        	600.        
;
 13              	0.00        	0.00        	0.00        	0.00        	0.00        	0.00        
 13              	0.00        	601.        	628.        	618.        	611.        	604.        
 13              	598.        	591.        	589.        	581.        	583.        	584.        
 13              	583.        	571.        	561.        	6.2         	0.00        	0.00        
 13              	0.00        	0.00        	0.00        	0.00        	0.00        	0.00        
 13              	0.00        	354.        	641.        	625.        	616.        	608.6       
;
 14              	850.        	858.        	875.        	879.        	885.        	890.        
 14              	944.        	928.        	988.        	901.        	901.        	904.        
 14              	908.        	907.        	690.        	640.        	640.        	640.        
 14              	640.        	640.        	640.        	757.        	974.        	967.        
 14              	949.        	941.        	943.        	945.        	928.        	952.        
 14              	996.        	1013.       	1001.       	996.        	997.        	991.        
;
 15              	764.        	764.        	833.        	972.        	903.        	1042.       
 15              	1042.       	972.        	903.        	903.        	903.        	903.        
 15              	903.        	903.        	903.        	903.        	833.        	833.        
 15              	903.        	903.        	903.        	903.        	903.        	833.        
 15              	833.        	1042.       	1042.       	1042.       	1042.       	1042.       
 15              	903.        	972.        	1042.       	1042.       	972.        	972.        
;
 16              	1.00        	1.00        	1.00        	1.00        	1.00        	1.00        
 16              	1.00        	1.00        	1.00        	1.00        	1.00        	1.00        
 16              	1.00        	1.00        	1.06        	1.06        	1.06        	1.13        
 16              	1.13        	1.13        	1.13        	1.13        	1.00        	1.00        
 16              	1.00        	1.00        	1.00        	0.94        	0.94        	1.02        
 16              	1.02        	1.02        	1.06        	1.06        	1.06        	1.06        
;
 17              	1.00        	1.00        	1.00        	1.00        	1.00        	1.00        
 17              	1.00        	1.00        	1.00        	1.00        	1.00        	1.00        
 17              	0.90        	0.90        	0.90        	0.90        	0.90        	0.90        
 17              	1.02        	1.02        	0.94        	0.94        	0.94        	0.94        
 17              	1.02        	1.02        	1.02        	1.02        	1.02        	1.02        
 17              	0.72        	0.72        	0.72        	0.72        	0.69        	0.69        

[CURVES]
;ID              	X-Value     	Y-Value

[CONTROLS]
;   LINK 32  OPEN   IF NODE 186 BELOW 28
;   LINK 32  CLOSED IF NODE 186 ABOVE 30
;   LINK 188 OPEN   IF NODE 186 BELOW 27
;   LINK 188 CLOSED IF NODE 186 ABOVE 29


[RULES]

[ENERGY]
 Global Efficiency  	75
 Global Price       	0
 Demand Charge      	0

[EMITTERS]
;Junction        	Coefficient

[QUALITY]
;Node            	InitQual
 1               	1.65
 2               	1.65
 3               	1.65
 4               	1.65
 5               	1.65
 6               	1.65
 7               	1.65
 8               	1.65
 9               	1.65
 10              	1.65
 11              	1.65
 12              	1.65
 13              	1.65
 14              	1.65
 15              	1.65
 16              	1.65
 17              	1.65
 18              	1.05
 19              	0.64
 20              	1.05
 21              	1.05
 22              	1.30
 23              	1.55
 24              	1.55
 25              	1.55
 26              	1.55
 27              	1.55
 28              	1.55
 29              	1.55
 30              	1.55
 31              	1.45
 32              	1.30
 33              	1.30
 34              	1.30
 35              	1.55
 36              	1.55
 37              	1.55
 38              	1.55
 39              	1.55
 40              	1.55
 41              	1.55
 42              	1.55
 43              	1.55
 44              	1.55
 45              	1.30
 46              	1.06
 47              	1.55
 48              	1.55
 49              	1.55
 50              	1.20
 51              	0.86
 52              	0.86
 53              	1.20
 54              	1.20
 55              	1.20
 56              	1.20
 57              	1.20
 58              	1.20
 59              	1.20
 60              	1.20
 61              	1.20
 62              	1.20
 63              	1.20
 64              	1.20
 65              	1.20
 66              	1.1
 67              	0.86
 68              	0.86
 69              	1.20
 70              	1.30
 71              	1.35
 72              	1.15
 73              	1.15
 74              	1.15
 75              	1.30
 76              	1.30
 77              	1.20
 85              	1.20
 87              	1.20
 88              	1.20
 89              	1.20
 143             	1.10
 144             	1.10
 145             	1.10
 146             	1.10
 147             	1.10
 148             	0.86
 150             	1.10
 151             	1.10
 152             	1.10
 153             	1.10
 154             	1.25
 155             	1.25
 156             	1.2
 157             	1.2
 158             	1.15
 159             	0.42
 163             	1.25
 164             	1.35
 165             	1.35
 166             	1.4
 167             	1.4
 168             	1.4
 169             	1.4
 170             	1.4
 171             	1.4
 172             	1.4
 173             	1.4
 174             	1.4
 175             	1.4
 176             	1.45
 177             	1.4
 178             	1.4
 179             	1.4
 180             	1.40
 181             	1.40
 182             	1.30
 183             	1.30
 184             	1.30
 185             	.27
 187             	1.25
 188             	1.25
 189             	1.30
 190             	1.30
 191             	1.30
 192             	1.30
 193             	1.30
 194             	1.30
 195             	1.10
 196             	1.10
 197             	1.10
 198             	1.10
 199             	1.10
 200             	1.10
 201             	0.9
 202             	0.9
 203             	0.9
 204             	0.9
 205             	0.86
 206             	0.9
 207             	0.9
 208             	1.32
 209             	1.32
 210             	1.32
 211             	1.32
 212             	1.32
 213             	1.32
 214             	1.32
 215             	0.83
 216             	1.32
 217             	1.32
 218             	1.32
 219             	1.32
 220             	1.32
 221             	1.32
 222             	1.32
 223             	1.32
 224             	1.32
 225             	1.32
 226             	1.32
 227             	1.2
 228             	1.2
 229             	1.2
 230             	1.32
 231             	1.32
 232             	1.05
 233             	1.05
 234             	1.15
 235             	1.25
 236             	1.40
 237             	1.40
 238             	1.40
 239             	1.40
 240             	1.40
 241             	1.40
 242             	1.40
 243             	1.40
 244             	1.25
 245             	1.25
 246             	1.15
 247             	1.35
 248             	1.35
 249             	1.40
 250             	1.40
 251             	1.50
 252             	1.50
 253             	1.40
 254             	1.40
 255             	1.40
 256             	1.30
 257             	1.30
 258             	1.30
 259             	1.30
 260             	1.30
 261             	1.45
 262             	1.45
 263             	1.45
 264             	1.45
 265             	1.45
 266             	1.30
 267             	1.15
 268             	1.30
 269             	1.60
 270             	1.60
 271             	1.60
 272             	1.60
 273             	1.60
 274             	1.60
 275             	1.60
 276             	1.60
 277             	1.60
 278             	1.60
 279             	1.60
 280             	1.60
 281             	1.60
 282             	1.60
 283             	1.60
 284             	1.60
 285             	1.60
 286             	1.60
 287             	1.60
 288             	1.60
 289             	1.60
 290             	1.60
 291             	1.60
 292             	1.60
 293             	1.60
 294             	1.60
 295             	1.60
 296             	1.60
 297             	1.60
 298             	1.60
 299             	1.60
 300             	1.60
 301             	1.60
 302             	1.60
 303             	1.60
 304             	1.60
 305             	1.60
 306             	1.60
 307             	1.60
 308             	1.60
 309             	1.60
 310             	1.60
 311             	1.60
 312             	1.60
 313             	1.60
 314             	1.60
 315             	1.60
 316             	1.60
 317             	1.60
 318             	1.60
 319             	1.60
 320             	1.35
 321             	1.35
 322             	1.35
 323             	1.35
 324             	1.35
 325             	1.35
 326             	1.35
 327             	1.35
 328             	1.35
 329             	1.35
 330             	1.35
 331             	1.35
 332             	1.35
 334             	1.35
 335             	1.35
 336             	1.35
 337             	1.35
 428             	1.60
 429             	1.60
 430             	1.4
 431             	1.4
 432             	1.4
 433             	1.30
 434             	1.30
 435             	1.30
 436             	1.30
 437             	1.93
 438             	1.45
 439             	1.4
 440             	1.4
 441             	1.40
 444             	1.32
 446             	1.60
 447             	1.60
 448             	1.60
 449             	1.35
 450             	1.35
 453             	1.55
 454             	1.30
 455             	1.30
 457             	1.45
 458             	1.50
 459             	1.50
 460             	1.45
 461             	1.55
 462             	1.55
 463             	1.55
 500             	1.32
 501             	1.32
 502             	1.32
 504             	1.32
 505             	1.32
 506             	1.32
 507             	1.32
 508             	1.32
 509             	1.32
 510             	1.32
 591             	1.35
 617             	1.60
 618             	1.60
 619             	1.60
 620             	1.60
 621             	1.60
 622             	1.60
 623             	1.60
 624             	1.60
 625             	1.60
 626             	1.60
 627             	1.60
 628             	1.60
 629             	1.60
 630             	1.40
 634             	1.60
 635             	1.35
 636             	1.55
 637             	1.32
 638             	1.32
 639             	1.60
 640             	1.10
 641             	1.32
 186             	.27
 338             	1.35

[SOURCES]
;Node            	Type        	Quality     	Pattern
 1               	CONCEN      	1.65        	16
 19              	CONCEN      	0.64        	
 46              	CONCEN      	1.06        	
 52              	CONCEN      	0.86        	
 74              	CONCEN      	1.01        	
 159             	CONCEN      	0.42        	
 205             	CONCEN      	0.86        	
 207             	CONCEN      	0.90        	
 215             	CONCEN      	0.83        	17
 233             	CONCEN      	1.05        	
 437             	CONCEN      	1.93        	

[REACTIONS]
;Type     	Pipe/Tank       	Coefficient


[REACTIONS]
 Order Bulk            	1
 Order Tank            	1
 Order Wall            	1
 Global Bulk           	-0.3
 Global Wall           	0
 Limiting Potential    	0
 Roughness Correlation 	0

[MIXING]
;Tank            	Model

[TIMES]
 Duration           	36:00 
 Hydraulic Timestep 	1:00
 Quality Timestep   	0:05
 Pattern Timestep   	1:00
 Pattern Start      	0:00
 Report Timestep    	1:00
 Report Start       	0:00
 Start ClockTime    	12 am
 Statistic          	None

[REPORT]
 Status             	No
 Summary            	No
 Page               	0

[OPTIONS]
 Units              	GPM
 Headloss           	H-W
 Specific Gravity   	1
 Viscosity          	1
 Trials             	40
 Accuracy           	0.001
 CHECKFREQ          	2
 MAXCHECK           	10
 DAMPLIMIT          	0
 Unbalanced         	Continue 10
 Pattern            	1
 Demand Multiplier  	1.0
 Emitter Exponent   	0.5
 Quality            	TOT-CL2 mg/L
 Diffusivity        	1
 Tolerance          	0.01

[COORDINATES]
;Node            	X-Coord           	Y-Coord
1               	41400.000         	6100.000          
2               	41200.000         	10100.000         
3               	40200.000         	14800.000         
4               	42100.000         	14800.000         
5               	42700.000         	15400.000         
6               	40100.000         	16400.000         
7               	41000.000         	18200.000         
8               	41000.000         	21200.000         
9               	40200.000         	21200.000         
10              	38100.000         	21200.000         
11              	36000.000         	21200.000         
12              	39900.000         	22400.000         
13              	39000.000         	22400.000         
14              	38500.000         	23200.000         
15              	38000.000         	23000.000         
16              	37600.000         	23300.000         
17              	36600.000         	22800.000         
18              	35700.000         	22400.000         
19              	35800.000         	22900.000         
20              	33600.000         	22200.000         
21              	32600.000         	22200.000         
22              	33700.000         	24000.000         
23              	36600.000         	24100.000         
24              	38800.000         	24600.000         
25              	39200.000         	25100.000         
26              	39600.000         	26800.000         
27              	41000.000         	27600.000         
28              	41000.000         	26500.000         
29              	41000.000         	28500.000         
30              	39300.000         	28500.000         
31              	36600.000         	28500.000         
32              	33700.000         	28500.000         
33              	32000.000         	28600.000         
34              	31500.000         	28100.000         
35              	39100.000         	29600.000         
36              	38900.000         	31200.000         
37              	39600.000         	31200.000         
38              	41000.000         	31300.000         
39              	41000.000         	33100.000         
40              	38900.000         	33100.000         
41              	38900.000         	34000.000         
42              	39200.000         	33900.000         
43              	39100.000         	35100.000         
44              	38400.000         	35600.000         
45              	39200.000         	35500.000         
46              	39500.000         	35500.000         
47              	39600.000         	34900.000         
48              	41000.000         	34000.000         
49              	41000.000         	34500.000         
50              	41900.000         	34500.000         
51              	41900.000         	34800.000         
52              	42100.000         	34800.000         
53              	42900.000         	34500.000         
54              	42800.000         	34000.000         
55              	43000.000         	33900.000         
56              	42800.000         	33000.000         
57              	44000.000         	34400.000         
58              	44300.000         	34400.000         
59              	44300.000         	31900.000         
60              	45000.000         	34400.000         
61              	45000.000         	35200.000         
62              	45000.000         	36100.000         
63              	44300.000         	36100.000         
64              	44300.000         	36200.000         
65              	44000.000         	36200.000         
66              	44000.000         	35400.000         
67              	41900.000         	35400.000         
68              	41900.000         	35800.000         
69              	41000.000         	35800.000         
70              	41000.000         	36200.000         
71              	39900.000         	36200.000         
72              	39900.000         	36500.000         
73              	39500.000         	36500.000         
74              	39200.000         	36700.000         
75              	41800.000         	36200.000         
76              	42400.000         	36200.000         
77              	47300.000         	35100.000         
85              	48000.000         	35100.000         
87              	48200.000         	34900.000         
88              	48200.000         	34400.000         
89              	48100.000         	33500.000         
143             	46500.000         	38100.000         
144             	46500.000         	38400.000         
145             	46500.000         	38700.000         
146             	46500.000         	39300.000         
147             	46500.000         	40700.000         
148             	42400.000         	35400.000         
150             	45600.000         	40800.000         
151             	44900.000         	40600.000         
152             	44900.000         	40900.000         
153             	44400.000         	40800.000         
154             	44400.000         	39800.000         
155             	45000.000         	39800.000         
156             	45000.000         	39300.000         
157             	45000.000         	38400.000         
158             	45700.000         	38400.000         
159             	45400.000         	37600.000         
163             	44600.000         	37600.000         
164             	44400.000         	37800.000         
165             	44400.000         	39000.000         
166             	43700.000         	39000.000         
167             	43700.000         	39600.000         
168             	43700.000         	39800.000         
169             	43400.000         	39800.000         
170             	42400.000         	39800.000         
171             	42400.000         	40200.000         
172             	42000.000         	40200.000         
173             	40700.000         	40200.000         
174             	39800.000         	40200.000         
175             	39800.000         	39900.000         
176             	38700.000         	39900.000         
177             	39800.000         	39200.000         
178             	39800.000         	38800.000         
179             	40200.000         	38800.000         
180             	40200.000         	38200.000         
181             	41100.000         	38200.000         
182             	41100.000         	37600.000         
183             	42400.000         	37600.000         
184             	42400.000         	37800.000         
185             	43000.000         	37800.000         
187             	43700.000         	37400.000         
188             	44300.000         	37400.000         
189             	41000.000         	37300.000         
190             	40200.000         	37300.000         
191             	38800.000         	37300.000         
192             	38800.000         	37400.000         
193             	40900.000         	37400.000         
194             	40900.000         	37600.000         
195             	44900.000         	42200.000         
196             	45300.000         	42200.000         
197             	44900.000         	43600.000         
198             	45400.000         	47200.000         
199             	45800.000         	49800.000         
200             	44500.000         	47200.000         
201             	45000.000         	49700.000         
202             	45300.000         	50600.000         
203             	45400.000         	51200.000         
204             	46100.000         	51100.000         
205             	46400.000         	51100.000         
206             	45600.000         	52300.000         
207             	44600.000         	50800.000         
208             	44000.000         	50200.000         
209             	43700.000         	49100.000         
210             	43700.000         	50300.000         
211             	43700.000         	50800.000         
212             	42900.000         	51300.000         
213             	43400.000         	52400.000         
214             	42100.000         	51800.000         
215             	39400.000         	53900.000         
216             	36500.000         	53800.000         
217             	42000.000         	48300.000         
218             	41500.000         	48100.000         
219             	41500.000         	47600.000         
220             	41500.000         	47100.000         
221             	41500.000         	46300.000         
222             	42500.000         	46400.000         
223             	42500.000         	47300.000         
224             	41500.000         	45500.000         
225             	42000.000         	45500.000         
226             	42000.000         	44200.000         
227             	41900.000         	42500.000         
228             	40600.000         	42700.000         
229             	40300.000         	42700.000         
230             	38800.000         	42900.000         
231             	38900.000         	45600.000         
232             	40400.000         	42200.000         
233             	40500.000         	41900.000         
234             	41700.000         	42100.000         
235             	41900.000         	42100.000         
236             	35100.000         	37300.000         
237             	35100.000         	37100.000         
238             	33000.000         	37400.000         
239             	32400.000         	38500.000         
240             	30400.000         	38500.000         
241             	32400.000         	37400.000         
242             	32000.000         	36700.000         
243             	32000.000         	35500.000         
244             	31400.000         	35600.000         
245             	30200.000         	35200.000         
246             	30200.000         	34900.000         
247             	29200.000         	35400.000         
248             	29500.000         	33700.000         
249             	32000.000         	33500.000         
250             	34900.000         	33300.000         
251             	35100.000         	35100.000         
252             	33500.000         	35200.000         
253             	34600.000         	32100.000         
254             	34200.000         	32000.000         
255             	34900.000         	31500.000         
256             	32100.000         	31300.000         
257             	32100.000         	31500.000         
258             	32100.000         	32100.000         
259             	27500.000         	31300.000         
260             	27500.000         	32700.000         
261             	26100.000         	31100.000         
262             	26100.000         	32600.000         
263             	24800.000         	32500.000         
264             	26100.000         	33900.000         
265             	26000.000         	35200.000         
266             	27000.000         	34500.000         
267             	27200.000         	34300.000         
268             	27400.000         	34800.000         
269             	26100.000         	29300.000         
270             	26600.000         	28400.000         
271             	22600.000         	28500.000         
272             	21600.000         	29400.000         
273             	21000.000         	32500.000         
274             	19600.000         	32700.000         
275             	18600.000         	32800.000         
276             	17600.000         	28900.000         
277             	16800.000         	28400.000         
278             	13600.000         	28400.000         
279             	16700.000         	30100.000         
280             	15500.000         	30300.000         
281             	14100.000         	30200.000         
282             	13700.000         	30200.000         
283             	12000.000         	30400.000         
284             	11100.000         	30300.000         
285             	10200.000         	30200.000         
286             	9100.000          	30800.000         
287             	8900.000          	30900.000         
288             	8600.000          	30900.000         
289             	8400.000          	31500.000         
290             	6900.000          	31500.000         
291             	7000.000          	30100.000         
292             	7300.000          	30000.000         
293             	13700.000         	33700.000         
294             	13700.000         	34500.000         
295             	14500.000         	34300.000         
296             	15000.000         	34300.000         
297             	15100.000         	34700.000         
298             	16100.000         	34100.000         
299             	16400.000         	35700.000         
300             	18000.000         	34000.000         
301             	14500.000         	35300.000         
302             	13500.000         	35300.000         
303             	13500.000         	35600.000         
304             	12800.000         	36400.000         
305             	12800.000         	35600.000         
306             	12100.000         	34500.000         
307             	12700.000         	34500.000         
308             	12800.000         	36900.000         
309             	11100.000         	36900.000         
310             	10800.000         	39700.000         
311             	10300.000         	40900.000         
312             	9800.000          	40500.000         
313             	9900.000          	40300.000         
314             	8400.000          	40800.000         
315             	8400.000          	40000.000         
316             	7500.000          	40000.000         
317             	4500.000          	39800.000         
318             	3500.000          	39600.000         
319             	3500.000          	39400.000         
320             	25900.000         	38800.000         
321             	24000.000         	40200.000         
322             	23500.000         	40500.000         
323             	23400.000         	38200.000         
324             	22500.000         	41300.000         
325             	20800.000         	42000.000         
326             	25900.000         	45400.000         
327             	26600.000         	45500.000         
328             	26600.000         	48700.000         
329             	26800.000         	48600.000         
330             	27100.000         	48200.000         
331             	27500.000         	47700.000         
332             	29600.000         	47500.000         
334             	26600.000         	49600.000         
335             	26600.000         	49900.000         
336             	26600.000         	50800.000         
337             	23700.000         	49700.000         
428             	15800.000         	32700.000         
429             	16000.000         	32700.000         
430             	42400.000         	39300.000         
431             	42400.000         	39100.000         
432             	42800.000         	39000.000         
433             	33700.000         	25500.000         
434             	31700.000         	24400.000         
435             	31700.000         	25200.000         
436             	31700.000         	26000.000         
437             	29900.000         	25700.000         
438             	36600.000         	30000.000         
439             	43400.000         	40200.000         
440             	42400.000         	38200.000         
441             	28100.000         	36600.000         
444             	43800.000         	43600.000         
445             	13600.000         	25700.000         
446             	18000.000         	30400.000         
447             	13700.000         	31400.000         
448             	12500.000         	31400.000         
449             	28500.000         	41300.000         
450             	25900.000         	41300.000         
453             	39300.000         	32100.000         
454             	30000.000         	31400.000         
455             	39500.000         	37300.000         
457             	37100.000         	30600.000         
458             	37300.000         	31200.000         
459             	37000.000         	34100.000         
460             	37900.000         	37400.000         
461             	41200.000         	25800.000         
462             	40200.000         	25700.000         
463             	40200.000         	25200.000         
500             	37800.000         	53900.000         
501             	37800.000         	51800.000         
502             	37800.000         	50000.000         
504             	37800.000         	49400.000         
505             	39600.000         	50000.000         
506             	39800.000         	50700.000         
507             	39900.000         	52400.000         
508             	39900.000         	52800.000         
509             	40500.000         	50600.000         
510             	42000.000         	51100.000         
591             	23100.000         	50000.000         
615             	13500.000         	21800.000         
616             	17400.000         	18200.000         
617             	23400.000         	28400.000         
618             	29900.000         	26000.000         
619             	23500.000         	24300.000         
620             	22400.000         	15200.000         
621             	23500.000         	15100.000         
622             	23500.000         	13300.000         
623             	22400.000         	13600.000         
624             	23000.000         	14600.000         
625             	22300.000         	12000.000         
626             	21300.000         	10000.000         
627             	19800.000         	5600.000          
628             	19600.000         	2100.000          
629             	19000.000         	1000.000          
630             	38800.000         	41400.000         
634             	18300.000         	0.000             
635             	23700.000         	49400.000         
636             	37450.000         	35350.000         
637             	40200.000         	45550.000         
638             	37800.000         	50900.000         
639             	26700.000         	25150.000         
640             	45700.000         	42200.000         
641             	38100.000         	50900.000         
700             	42900.000         	38200.000         
186             	42800.000         	38500.000         
338             	23100.000         	50200.000         

[VERTICES]
;Link            	X-Coord           	Y-Coord

[LABELS]
;X-Coord             Y-Coord             Label & Anchor Node
46350.000         	37350.000         	"2 MG Tank"	186
35300.000         	25800.000         	"NP-17"	19
16800.000         	52300.000         	"Lawn Ave. Tank"	338
47500.000         	51500.000         	"NP-21"	205
42000.000         	-500.000          	"Keystone Tank"	
49350.000         	64800.000         	"Forest Park"	
41400.000         	6100.000          	"N8"	1
41000.000         	21200.000         	"N7"	8
41000.000         	28500.000         	"N6"	29
32000.000         	35500.000         	"N5"	243
38800.000         	37400.000         	"N4"	192
42900.000         	38200.000         	"N3"	700
44900.000         	43600.000         	"N2"	197
39400.000         	53900.000         	"N1"	215

[BACKDROP]
  DIMENSIONS  	1265.000          	-2695.000         	50435.000         	56595.000         
 UNITS          	None
 FILE           	
 OFFSET         	0.00            	0.00            

[END]
